LAMMPS description

    1685          atoms
    1124          bonds
     564         angles
       2      dihedrals
       1      impropers

      16     atom types
       7     bond types
       6    angle types
       1 dihedral types
       2 improper types


  0.0000000      25.585000     xlo xhi
  0.0000000      25.585000     ylo yhi
  0.0000000      25.585000     zlo zhi

 Atoms

      1      1      9      0.0000000      5.8630000     14.9380000     22.8490000
      2      1     10      0.0000000      5.2030000     14.9710000     23.8810000
      3      1     10      0.0000000      6.3730000     15.8300000     22.1260000
      4      1     11      0.0000000      6.2230000     13.5650000     22.6000000
      5      1     12      0.0000000      5.4390000     13.1060000     22.1730000
      6      2      3      0.0000000     10.0430000     10.4450000      9.5190000
      7      2      4      0.0000000     10.4310000     11.2750000     10.0680000
      8      2      4      0.0000000      9.6290000     10.9180000      8.6980000
      9      3      3      0.0000000      8.1500000     13.2370000     19.0410000
     10      3      4      0.0000000      8.5430000     13.9770000     18.4220000
     11      3      4      0.0000000      7.3250000     13.5910000     19.5910000
     12      4      3      0.0000000     13.3830000      5.7340000     24.5590000
     13      4      4      0.0000000     12.9620000      6.4560000     25.1710000
     14      4      4      0.0000000     13.4470000      6.0970000     23.6090000
     15      5      3      0.0000000      4.8870000     24.9730000      6.7530000
     16      5      4      0.0000000      4.2790000     24.9080000      7.5680000
     17      5      4      0.0000000      5.7710000     24.5360000      7.0270000
     18      6      3      0.0000000     10.4300000     24.2270000      3.3230000
     19      6      4      0.0000000     10.8020000     23.3480000      3.0250000
     20      6      4      0.0000000      9.8030000     24.5520000      2.5770000
     21      7      3      0.0000000     24.9640000     22.9540000     24.1730000
     22      7      4      0.0000000     25.7580000     23.4950000     24.2500000
     23      7      4      0.0000000     24.3020000     23.6040000     23.6290000
     24      8      3      0.0000000     24.1030000     25.3860000      5.5990000
     25      8      4      0.0000000     25.1460000     25.4640000      5.4380000
     26      8      4      0.0000000     23.6970000     25.1640000      6.5480000
     27      9      3      0.0000000      8.3440000     23.7450000     12.4580000
     28      9      4      0.0000000      7.6890000     23.1120000     11.9730000
     29      9      4      0.0000000      7.7700000     24.5580000     12.5280000
     30     10      3      0.0000000     12.3890000      3.8590000     17.1130000
     31     10      4      0.0000000     12.9870000      4.4830000     16.5780000
     32     10      4      0.0000000     11.6670000      3.6590000     16.4200000
     33     11      3      0.0000000      9.8380000     17.2020000     10.4630000
     34     11      4      0.0000000      9.3880000     16.4450000      9.8880000
     35     11      4      0.0000000     10.5240000     17.6580000      9.8710000
     36     12      3      0.0000000     21.0250000      1.3000000      0.8750000
     37     12      4      0.0000000     20.7830000      0.9060000      1.7700000
     38     12      4      0.0000000     20.1380000      1.5950000      0.4680000
     39     13      3      0.0000000     24.3570000      7.4210000     25.3060000
     40     13      4      0.0000000     24.0130000      8.2710000     24.8590000
     41     13      4      0.0000000     25.3570000      7.1560000     24.8580000
     42     14      3      0.0000000     25.3070000     12.8170000     20.6470000
     43     14      4      0.0000000     25.2570000     11.9490000     20.1360000
     44     14      4      0.0000000     24.4380000     13.2600000     20.7830000
     45     15      3      0.0000000     16.7060000     13.4410000      1.9970000
     46     15      4      0.0000000     17.0060000     14.4200000      1.9920000
     47     15      4      0.0000000     17.0000000     12.9040000      1.1730000
     48     16      3      0.0000000      8.4150000     24.2920000     22.9730000
     49     16      4      0.0000000      8.4610000     23.5180000     23.7090000
     50     16      4      0.0000000      9.4430000     24.4980000     22.9250000
     51     17      3      0.0000000      0.9590000     12.8920000     23.0080000
     52     17      4      0.0000000      0.5380000     12.8180000     22.0750000
     53     17      4      0.0000000      0.2110000     13.3560000     23.5990000
     54     18      3      0.0000000      9.7430000     24.9870000      8.2320000
     55     18      4      0.0000000     10.6900000     24.7060000      7.8380000
     56     18      4      0.0000000      9.7770000     26.0610000      8.1460000
     57     19      3      0.0000000      3.9350000     12.9780000     25.4260000
     58     19      4      0.0000000      3.5700000     12.2840000     24.8130000
     59     19      4      0.0000000      4.4360000     13.7160000     24.8730000
     60     20      3      0.0000000     11.2500000      1.8550000     13.1090000
     61     20      4      0.0000000     12.2930000      1.7520000     12.9750000
     62     20      4      0.0000000     11.1720000      2.5930000     13.8600000
     63     21      3      0.0000000     15.7400000     21.9550000      6.4390000
     64     21      4      0.0000000     16.4180000     21.1660000      6.3940000
     65     21      4      0.0000000     14.9470000     21.8210000      5.8540000
     66     22      3      0.0000000     14.9690000     16.3950000     11.0430000
     67     22      4      0.0000000     14.5290000     17.1020000     11.6440000
     68     22      4      0.0000000     15.9480000     16.6650000     10.8600000
     69     23      3      0.0000000     18.5710000      1.1650000      8.1050000
     70     23      4      0.0000000     17.9070000      1.9620000      7.9820000
     71     23      4      0.0000000     18.1340000      0.2380000      7.8450000
     72     24      3      0.0000000     10.6060000     21.0610000     12.4730000
     73     24      4      0.0000000     10.4760000     21.8730000     13.0830000
     74     24      4      0.0000000     10.5790000     21.4480000     11.4720000
     75     25      3      0.0000000      4.6010000      7.2550000      9.3190000
     76     25      4      0.0000000      4.6050000      6.6840000     10.2090000
     77     25      4      0.0000000      4.4230000      8.1860000      9.6410000
     78     26      3      0.0000000     24.1670000     14.0800000      8.9340000
     79     26      4      0.0000000     23.6290000     14.3340000      8.0870000
     80     26      4      0.0000000     24.6740000     13.2050000      8.7290000
     81     27      3      0.0000000      9.5330000      1.3010000     25.2600000
     82     27      4      0.0000000      9.7180000      1.3570000     24.2510000
     83     27      4      0.0000000      8.5190000      1.4600000     25.4390000
     84     28      3      0.0000000     15.5540000     20.6580000     18.3980000
     85     28      4      0.0000000     15.7500000     19.6170000     18.5370000
     86     28      4      0.0000000     14.5150000     20.7350000     18.5090000
     87     29      3      0.0000000      3.4930000      4.0430000     19.6290000
     88     29      4      0.0000000      4.1700000      4.3970000     20.3660000
     89     29      4      0.0000000      3.8680000      4.3520000     18.7380000
     90     30      3      0.0000000     18.9010000     11.6200000     22.2250000
     91     30      4      0.0000000     18.1830000     12.2030000     21.6990000
     92     30      4      0.0000000     19.6470000     11.2950000     21.6270000
     93     31      3      0.0000000      1.4750000      2.8680000      0.4740000
     94     31      4      0.0000000      2.1400000      3.3980000      1.0700000
     95     31      4      0.0000000      0.4980000      3.0340000      0.7980000
     96     32      3      0.0000000     10.0570000      4.7110000      8.8930000
     97     32      4      0.0000000     10.1060000      5.5110000      8.2810000
     98     32      4      0.0000000      9.2330000      4.8770000      9.4990000
     99     33      3      0.0000000     21.8190000     19.3750000     11.1850000
    100     33      4      0.0000000     21.9130000     18.5700000     10.5230000
    101     33      4      0.0000000     22.7780000     19.7750000     11.0510000
    102     34      3      0.0000000      0.3420000     11.8750000     11.8640000
    103     34      4      0.0000000      0.6200000     11.4660000     11.0020000
    104     34      4      0.0000000     -0.5560000     12.3610000     11.6850000
    105     35      3      0.0000000      6.3260000      2.3360000      8.0300000
    106     35      4      0.0000000      5.8360000      1.4740000      8.4290000
    107     35      4      0.0000000      6.7250000      2.8230000      8.8460000
    108     36      3      0.0000000     10.8510000      2.0690000      8.7170000
    109     36      4      0.0000000     10.3330000      2.9730000      8.5290000
    110     36      4      0.0000000     11.5790000      2.0200000      7.9870000
    111     37      3      0.0000000      1.0210000      5.1200000     19.6770000
    112     37      4      0.0000000      1.9320000      4.6890000     19.8810000
    113     37      4      0.0000000      0.5450000      5.3720000     20.5850000
    114     38      3      0.0000000     22.2370000     18.9480000      7.3510000
    115     38      4      0.0000000     22.9490000     19.5200000      6.9560000
    116     38      4      0.0000000     21.2950000     18.9540000      6.9640000
    117     39      3      0.0000000      9.0990000     18.8480000     12.6700000
    118     39      4      0.0000000      9.6390000     19.7400000     12.6280000
    119     39      4      0.0000000      9.1500000     18.3500000     11.7520000
    120     40      3      0.0000000     24.1540000     16.9120000     24.9500000
    121     40      4      0.0000000     24.9710000     17.4260000     24.5590000
    122     40      4      0.0000000     24.0200000     17.1390000     25.8930000
    123     41      3      0.0000000     13.8900000      1.8400000     13.1680000
    124     41      4      0.0000000     14.6010000      1.1970000     13.4490000
    125     41      4      0.0000000     14.1540000      2.8150000     12.9800000
    126     42      3      0.0000000      5.3440000      7.1100000     16.2250000
    127     42      4      0.0000000      4.5510000      7.6370000     16.7470000
    128     42      4      0.0000000      5.8820000      7.8550000     15.7930000
    129     43      3      0.0000000      8.8790000     20.4450000      1.2810000
    130     43      4      0.0000000      8.9720000     19.7350000      0.5560000
    131     43      4      0.0000000      8.7610000     19.9430000      2.1480000
    132     44      3      0.0000000     10.6720000      7.3370000      8.1340000
    133     44      4      0.0000000     11.3460000      8.0700000      8.3580000
    134     44      4      0.0000000      9.8270000      7.4810000      8.6570000
    135     45      3      0.0000000     21.3030000     11.6180000     15.3740000
    136     45      4      0.0000000     21.4880000     12.6450000     15.5050000
    137     45      4      0.0000000     22.0380000     11.1580000     14.8270000
    138     46      3      0.0000000     21.2540000      0.1120000     23.8550000
    139     46      4      0.0000000     20.5500000     -0.6250000     24.1040000
    140     46      4      0.0000000     21.3980000      0.6730000     24.7310000
    141     47      3      0.0000000      8.9930000      9.9690000     12.0850000
    142     47      4      0.0000000      9.7830000      9.2930000     11.8180000
    143     47      4      0.0000000      9.3190000     10.9400000     11.8560000
    144     48      3      0.0000000      4.9790000      5.1160000     21.8590000
    145     48      4      0.0000000      4.3290000      4.9500000     22.6300000
    146     48      4      0.0000000      4.8410000      5.9810000     21.3750000
    147     49      3      0.0000000     22.0830000     10.9570000      1.6790000
    148     49      4      0.0000000     21.2550000     11.3340000      2.1660000
    149     49      4      0.0000000     21.8670000     10.4140000      0.8350000
    150     50      3      0.0000000     25.3170000     13.5620000      4.3710000
    151     50      4      0.0000000     25.6810000     12.6000000      4.4900000
    152     50      4      0.0000000     25.2070000     13.6250000      3.3350000
    153     51      3      0.0000000      6.0610000      9.3040000     14.3820000
    154     51      4      0.0000000      5.9240000     10.1220000     15.0220000
    155     51      4      0.0000000      7.0680000      9.0630000     14.3900000
    156     52      3      0.0000000      2.7080000      9.8140000      5.7100000
    157     52      4      0.0000000      2.4470000      9.0030000      6.3490000
    158     52      4      0.0000000      3.6610000      9.8270000      5.5510000
    159     53      3      0.0000000     18.3740000      2.7610000     20.9580000
    160     53      4      0.0000000     17.4160000      2.7660000     20.6920000
    161     53      4      0.0000000     18.9540000      1.9020000     20.6060000
    162     54      3      0.0000000     10.5320000     12.1630000     20.4990000
    163     54      4      0.0000000     10.1750000     11.1920000     20.4230000
    164     54      4      0.0000000      9.6870000     12.6360000     20.2930000
    165     55      3      0.0000000     10.7820000     19.8380000      4.0830000
    166     55      4      0.0000000     10.0330000     20.0760000      4.7580000
    167     55      4      0.0000000     10.4870000     18.8880000      3.7320000
    168     56      3      0.0000000     22.3240000     23.9450000     22.0740000
    169     56      4      0.0000000     22.6410000     24.1470000     21.0920000
    170     56      4      0.0000000     21.8070000     24.6910000     22.5520000
    171     57      3      0.0000000      7.2770000     23.9250000      7.8800000
    172     57      4      0.0000000      7.3110000     23.0920000      8.4120000
    173     57      4      0.0000000      8.2040000     24.3650000      7.9990000
    174     58      3      0.0000000     12.8470000     17.5140000     25.1920000
    175     58      4      0.0000000     13.1150000     17.6760000     24.1750000
    176     58      4      0.0000000     13.4410000     18.1080000     25.7780000
    177     59      3      0.0000000     13.5060000      4.6420000      3.3010000
    178     59      4      0.0000000     12.9700000      3.8400000      3.0080000
    179     59      4      0.0000000     12.8480000      5.4480000      3.2610000
    180     60      3      0.0000000      3.8240000     16.0630000      3.7430000
    181     60      4      0.0000000      4.0160000     15.1360000      3.2020000
    182     60      4      0.0000000      4.4970000     15.8660000      4.4990000
    183     61      3      0.0000000     13.9020000      1.8310000     18.1740000
    184     61      4      0.0000000     13.1970000      2.4890000     17.8020000
    185     61      4      0.0000000     13.4500000      1.0220000     18.6990000
    186     62      3      0.0000000     16.9660000     22.9510000     10.4220000
    187     62      4      0.0000000     16.7290000     23.3730000     11.3120000
    188     62      4      0.0000000     16.1940000     23.0740000      9.7070000
    189     63      3      0.0000000      6.8360000     22.9350000     21.2910000
    190     63      4      0.0000000      6.9340000     23.1070000     20.3170000
    191     63      4      0.0000000      7.5590000     23.4550000     21.7470000
    192     64      3      0.0000000     13.0160000     12.8210000     18.8350000
    193     64      4      0.0000000     13.4110000     11.8810000     18.9670000
    194     64      4      0.0000000     12.2540000     12.8930000     19.4820000
    195     65      3      0.0000000     13.4370000     19.2250000      3.9950000
    196     65      4      0.0000000     12.3850000     19.3190000      3.9760000
    197     65      4      0.0000000     13.7630000     18.5220000      4.6990000
    198     66      3      0.0000000     13.8600000      0.8030000      3.6260000
    199     66      4      0.0000000     14.6710000      1.0850000      4.2710000
    200     66      4      0.0000000     13.1550000      1.5920000      3.7120000
    201     67      3      0.0000000      2.9820000      6.7610000      4.7100000
    202     67      4      0.0000000      2.6760000      7.1550000      5.6220000
    203     67      4      0.0000000      2.9240000      5.7580000      4.8080000
    204     68      3      0.0000000     23.8290000     16.5180000     18.8390000
    205     68      4      0.0000000     24.7240000     16.5580000     18.4050000
    206     68      4      0.0000000     24.1210000     16.9290000     19.7420000
    207     69      3      0.0000000      6.5910000      0.8440000     23.2710000
    208     69      4      0.0000000      7.3460000      0.1330000     23.2230000
    209     69      4      0.0000000      6.8630000      1.5360000     22.6060000
    210     70      3      0.0000000     12.7550000     15.7750000      3.1210000
    211     70      4      0.0000000     12.4920000     15.4940000      4.0680000
    212     70      4      0.0000000     12.8400000     14.8590000      2.5580000
    213     71      3      0.0000000     20.0120000     21.0450000      6.3270000
    214     71      4      0.0000000     19.4230000     21.5750000      5.7450000
    215     71      4      0.0000000     20.9370000     21.2960000      6.0500000
    216     72      3      0.0000000     13.3710000     14.8520000     24.8080000
    217     72      4      0.0000000     12.9970000     15.7970000     25.0940000
    218     72      4      0.0000000     12.5470000     14.6290000     24.1750000
    219     73      3      0.0000000      4.8160000      6.2310000     24.4120000
    220     73      4      0.0000000      4.5990000      7.1800000     23.9260000
    221     73      4      0.0000000      5.8500000      5.9950000     24.2780000
    222     74      3      0.0000000      4.6060000      1.2250000      1.8880000
    223     74      4      0.0000000      4.9470000      1.3120000      2.8520000
    224     74      4      0.0000000      3.8010000      0.5980000      2.0150000
    225     75      3      0.0000000     19.2370000      3.8570000      5.2740000
    226     75      4      0.0000000     18.3070000      3.4900000      5.0800000
    227     75      4      0.0000000     19.8040000      2.9840000      5.5740000
    228     76      3      0.0000000      8.6180000     14.0960000     12.8200000
    229     76      4      0.0000000      7.9260000     14.7970000     12.6170000
    230     76      4      0.0000000      9.4440000     14.5210000     13.3350000
    231     77      3      0.0000000     18.3150000     15.5400000      5.8130000
    232     77      4      0.0000000     17.7490000     16.2040000      5.3470000
    233     77      4      0.0000000     17.9980000     15.5100000      6.7970000
    234     78      3      0.0000000     11.5140000      6.7750000      3.1810000
    235     78      4      0.0000000     11.1370000      7.3230000      3.9650000
    236     78      4      0.0000000     10.7600000      6.1510000      2.7880000
    237     79      3      0.0000000     23.1890000     17.5070000      2.1000000
    238     79      4      0.0000000     23.4450000     17.2160000      3.0510000
    239     79      4      0.0000000     23.8950000     18.2810000      1.8280000
    240     80      3      0.0000000     16.7510000      3.1750000      4.1460000
    241     80      4      0.0000000     16.8150000      2.8700000      3.1330000
    242     80      4      0.0000000     16.3270000      4.1040000      4.0550000
    243     81      3      0.0000000      4.1600000     18.2740000     17.7740000
    244     81      4      0.0000000      4.6480000     19.1280000     17.8570000
    245     81      4      0.0000000      3.2180000     18.4480000     17.4600000
    246     82      3      0.0000000     18.1520000      5.8190000     22.1400000
    247     82      4      0.0000000     18.0200000      5.7620000     21.1320000
    248     82      4      0.0000000     19.1390000      5.8950000     22.4070000
    249     83      3      0.0000000     16.9570000     10.7180000     14.2220000
    250     83      4      0.0000000     16.1400000     11.2020000     13.7790000
    251     83      4      0.0000000     17.9020000     10.9370000     13.7840000
    252     84      3      0.0000000     17.2920000      8.2920000      6.9590000
    253     84      4      0.0000000     17.8980000      7.4390000      6.8750000
    254     84      4      0.0000000     17.2090000      8.5300000      7.9530000
    255     85      3      0.0000000     14.6420000      8.2240000     20.8150000
    256     85      4      0.0000000     15.2430000      8.0050000     21.6320000
    257     85      4      0.0000000     13.8220000      7.6880000     20.8530000
    258     86      3      0.0000000      6.3640000     11.3300000     10.9790000
    259     86      4      0.0000000      7.3450000     11.0790000     11.0130000
    260     86      4      0.0000000      6.1360000     12.2160000     11.4510000
    261     87      3      0.0000000     14.4080000      0.1090000      8.1740000
    262     87      4      0.0000000     14.7390000      0.5940000      7.2860000
    263     87      4      0.0000000     14.4940000      0.8500000      8.9400000
    264     88      3      0.0000000      4.5570000      2.9020000     15.5730000
    265     88      4      0.0000000      4.7950000      1.9810000     15.8670000
    266     88      4      0.0000000      4.3670000      3.4650000     16.4530000
    267     89      3      0.0000000     11.6410000     23.2270000     16.6670000
    268     89      4      0.0000000     11.0910000     22.8390000     15.8940000
    269     89      4      0.0000000     12.1950000     24.0530000     16.2020000
    270     90      3      0.0000000      1.5650000     19.9640000      5.5200000
    271     90      4      0.0000000      2.4870000     19.9180000      6.0550000
    272     90      4      0.0000000      1.6110000     19.0010000      5.0360000
    273     91      3      0.0000000     10.9190000     14.8910000     23.4480000
    274     91      4      0.0000000     10.3620000     14.2260000     22.9340000
    275     91      4      0.0000000     10.8430000     15.8950000     23.1540000
    276     92      3      0.0000000      5.7640000      6.5990000      6.8090000
    277     92      4      0.0000000      5.3840000      7.0600000      5.9430000
    278     92      4      0.0000000      5.6260000      7.0550000      7.7410000
    279     93      3      0.0000000     10.7180000      5.6120000     12.0040000
    280     93      4      0.0000000     10.8040000      5.9910000     12.9320000
    281     93      4      0.0000000     11.3350000      4.8170000     11.8970000
    282     94      3      0.0000000      5.5830000     19.4330000     11.2170000
    283     94      4      0.0000000      6.0200000     20.4140000     11.0710000
    284     94      4      0.0000000      5.8150000     19.3430000     12.1890000
    285     95      3      0.0000000      2.1260000     25.5960000      2.8540000
    286     95      4      0.0000000      2.3860000     24.7550000      2.3040000
    287     95      4      0.0000000      1.2350000     25.8070000      2.3510000
    288     96      3      0.0000000      8.8200000      4.5580000     23.3700000
    289     96      4      0.0000000      9.5470000      4.3770000     24.1110000
    290     96      4      0.0000000      8.3080000      5.3680000     23.6730000
    291     97      3      0.0000000     23.0400000      5.2540000      9.6800000
    292     97      4      0.0000000     22.8750000      4.2460000      9.9540000
    293     97      4      0.0000000     22.3290000      5.8230000     10.2000000
    294     98      3      0.0000000     13.7880000     13.6280000      1.9700000
    295     98      4      0.0000000     13.6180000     13.8870000      1.0060000
    296     98      4      0.0000000     14.8070000     13.5220000      2.1060000
    297     99      3      0.0000000      0.0130000     25.5380000      1.2240000
    298     99      4      0.0000000      0.5070000     25.4350000      0.3210000
    299     99      4      0.0000000     -0.4110000     24.6040000      1.4610000
    300    100      3      0.0000000     24.0280000      6.9300000      3.3250000
    301    100      4      0.0000000     24.9340000      6.7560000      2.8710000
    302    100      4      0.0000000     23.9720000      6.1100000      3.9240000
    303    101      3      0.0000000      5.0070000     10.3270000      2.0460000
    304    101      4      0.0000000      3.9550000     10.2140000      1.9980000
    305    101      4      0.0000000      5.2330000      9.3590000      2.1700000
    306    102      3      0.0000000      4.4590000     13.2760000     18.4500000
    307    102      4      0.0000000      3.4580000     13.3940000     18.2880000
    308    102      4      0.0000000      4.9020000     14.2300000     18.5270000
    309    103      3      0.0000000      1.4210000     22.2050000      1.7300000
    310    103      4      0.0000000      2.1690000     22.8360000      1.5030000
    311    103      4      0.0000000      1.7670000     21.2120000      1.8420000
    312    104      3      0.0000000     14.6100000     19.4260000     11.6750000
    313    104      4      0.0000000     14.0990000     20.2220000     12.1320000
    314    104      4      0.0000000     15.2220000     19.8370000     10.9500000
    315    105      3      0.0000000     25.4510000     20.5250000     14.2990000
    316    105      4      0.0000000     26.2770000     20.3820000     13.7010000
    317    105      4      0.0000000     24.6100000     20.1870000     13.8270000
    318    106      3      0.0000000      2.7630000      2.2610000     23.3930000
    319    106      4      0.0000000      3.4020000      1.3460000     23.3480000
    320    106      4      0.0000000      2.3200000      2.3250000     24.3240000
    321    107      3      0.0000000      1.3300000     21.3070000     21.0470000
    322    107      4      0.0000000      1.3650000     20.3780000     20.5800000
    323    107      4      0.0000000      1.5780000     21.1580000     22.0400000
    324    108      3      0.0000000     15.9630000     25.0840000      2.2440000
    325    108      4      0.0000000     16.0190000     24.1010000      1.9610000
    326    108      4      0.0000000     15.0280000     25.3950000      2.5550000
    327    109      3      0.0000000     11.4410000     15.4010000     11.7130000
    328    109      4      0.0000000     10.9070000     16.2000000     11.2470000
    329    109      4      0.0000000     11.1940000     15.3370000     12.6850000
    330    110      3      0.0000000     19.7330000      3.2590000     23.2870000
    331    110      4      0.0000000     19.4450000      2.8300000     24.2110000
    332    110      4      0.0000000     19.2000000      3.0050000     22.4620000
    333    111      3      0.0000000      3.8000000     10.2130000     13.0260000
    334    111      4      0.0000000      4.6510000     10.0520000     13.5880000
    335    111      4      0.0000000      3.4910000      9.2140000     12.8270000
    336    112      3      0.0000000     19.5230000      4.7180000     17.4240000
    337    112      4      0.0000000     18.7240000      5.2890000     17.1620000
    338    112      4      0.0000000     19.2750000      3.7530000     17.1380000
    339    113      3      0.0000000      3.7790000     20.9690000     15.6110000
    340    113      4      0.0000000      3.2530000     20.1250000     15.4350000
    341    113      4      0.0000000      3.8390000     21.1270000     16.6140000
    342    114      3      0.0000000      1.4980000     24.1220000     13.0010000
    343    114      4      0.0000000      0.6780000     24.2420000     12.3840000
    344    114      4      0.0000000      1.4490000     24.7940000     13.8030000
    345    115      3      0.0000000      7.0440000     22.4960000      1.5840000
    346    115      4      0.0000000      7.6790000     23.2570000      1.2770000
    347    115      4      0.0000000      7.5430000     21.6200000      1.6360000
    348    116      3      0.0000000     22.2430000     20.5800000      2.6240000
    349    116      4      0.0000000     22.4660000     20.6860000      1.6200000
    350    116      4      0.0000000     23.1190000     20.2130000      3.0660000
    351    117      3      0.0000000     22.0730000     22.1250000     11.1590000
    352    117      4      0.0000000     21.3160000     22.5710000     10.7420000
    353    117      4      0.0000000     21.8220000     21.1880000     11.1730000
    354    118      3      0.0000000     18.2700000     20.1190000     17.2950000
    355    118      4      0.0000000     18.9250000     20.8740000     17.6800000
    356    118      4      0.0000000     17.3580000     20.2400000     17.7580000
    357    119      3      0.0000000      2.1000000     19.5340000      1.8110000
    358    119      4      0.0000000      2.8860000     19.2440000      2.4190000
    359    119      4      0.0000000      2.3680000     19.6290000      0.8030000
    360    120      3      0.0000000     24.1470000      4.5570000     18.4280000
    361    120      4      0.0000000     25.0170000      4.6700000     18.9370000
    362    120      4      0.0000000     24.2660000      5.1050000     17.5980000
    363    121      3      0.0000000      1.5550000     16.8440000     17.5490000
    364    121      4      0.0000000      1.7330000     15.9350000     17.9970000
    365    121      4      0.0000000      1.6330000     16.6730000     16.5470000
    366    122      3      0.0000000     15.7480000      1.1940000     24.0230000
    367    122      4      0.0000000     16.1790000      2.1620000     23.9490000
    368    122      4      0.0000000     15.1430000      1.2590000     24.8060000
    369    123      3      0.0000000     23.7850000     10.2030000     18.4360000
    370    123      4      0.0000000     22.9540000      9.7220000     18.1480000
    371    123      4      0.0000000     24.2060000      9.6920000     19.2420000
    372    124      3      0.0000000      8.9290000     11.8980000      3.3500000
    373    124      4      0.0000000      8.0870000     12.4320000      3.1170000
    374    124      4      0.0000000      9.2970000     11.4040000      2.5180000
    375    125      3      0.0000000     17.1230000     24.8370000     22.8830000
    376    125      4      0.0000000     16.6510000     25.7180000     23.2440000
    377    125      4      0.0000000     17.8820000     24.7990000     23.6170000
    378    126      3      0.0000000     14.1770000     10.9640000      8.1670000
    379    126      4      0.0000000     14.3660000     10.7440000      7.1930000
    380    126      4      0.0000000     15.0600000     11.0850000      8.6490000
    381    127      3      0.0000000     17.6980000     25.5890000     12.0520000
    382    127      4      0.0000000     18.2540000     25.1110000     12.7420000
    383    127      4      0.0000000     16.7860000     25.1320000     12.0090000
    384    128      3      0.0000000     16.2350000     19.0450000     14.0510000
    385    128      4      0.0000000     15.9480000     19.0720000     13.0650000
    386    128      4      0.0000000     16.2890000     18.0740000     14.3560000
    387    129      3      0.0000000      8.8700000     11.5650000      7.6130000
    388    129      4      0.0000000      8.0580000     12.1900000      7.7700000
    389    129      4      0.0000000      8.5260000     10.7210000      7.1770000
    390    130      3      0.0000000     10.5110000     23.7960000     19.3030000
    391    130      4      0.0000000     10.9280000     23.5980000     18.3550000
    392    130      4      0.0000000      9.6530000     24.2870000     19.0590000
    393    131      3      0.0000000     20.4400000      7.0410000     15.9010000
    394    131      4      0.0000000     20.6630000      6.7600000     16.8140000
    395    131      4      0.0000000     19.4250000      6.9960000     15.8430000
    396    132      3      0.0000000     18.7830000     17.6630000      2.0320000
    397    132      4      0.0000000     18.0580000     17.0020000      2.4300000
    398    132      4      0.0000000     19.4920000     17.8150000      2.7340000
    399    133      3      0.0000000     22.4030000     13.9490000     20.5650000
    400    133      4      0.0000000     21.9060000     13.8750000     21.4910000
    401    133      4      0.0000000     22.3270000     14.9700000     20.3450000
    402    134      3      0.0000000      2.7290000     18.2880000     10.8380000
    403    134      4      0.0000000      1.7490000     18.5980000     10.6700000
    404    134      4      0.0000000      3.1540000     18.8390000     11.6170000
    405    135      3      0.0000000     16.0970000     12.1460000      4.2810000
    406    135      4      0.0000000     16.4430000     12.5450000      3.4120000
    407    135      4      0.0000000     15.6630000     13.0020000      4.7460000
    408    136      3      0.0000000     22.7270000      8.6160000     11.3670000
    409    136      4      0.0000000     23.3990000      8.8710000     10.6640000
    410    136      4      0.0000000     22.1410000      7.7920000     11.1840000
    411    137      3      0.0000000      2.8340000     21.3900000     18.2140000
    412    137      4      0.0000000      2.4580000     22.3440000     18.3550000
    413    137      4      0.0000000      2.0050000     20.7500000     18.1460000
    414    138      3      0.0000000     20.9690000      8.5570000     22.5950000
    415    138      4      0.0000000     20.3260000      8.6290000     21.8160000
    416    138      4      0.0000000     20.6520000      7.6600000     23.1160000
    417    139      3      0.0000000     16.1000000     19.0140000     24.7350000
    418    139      4      0.0000000     16.9960000     19.3460000     25.2270000
    419    139      4      0.0000000     15.4260000     18.9090000     25.5240000
    420    140      3      0.0000000     13.5990000      5.2530000     15.2640000
    421    140      4      0.0000000     13.6140000      5.0040000     14.2780000
    422    140      4      0.0000000     14.3330000      5.9220000     15.5220000
    423    141      3      0.0000000     15.2860000     24.4430000     12.3140000
    424    141      4      0.0000000     14.3250000     24.2730000     11.9710000
    425    141      4      0.0000000     15.1620000     24.6480000     13.2830000
    426    142      3      0.0000000      8.8290000      2.8400000      2.4560000
    427    142      4      0.0000000      8.2560000      2.7150000      1.5920000
    428    142      4      0.0000000      8.4200000      2.4080000      3.2690000
    429    143      3      0.0000000      5.3960000     13.5660000     14.8910000
    430    143      4      0.0000000      4.9850000     14.3760000     15.3690000
    431    143      4      0.0000000      5.4310000     12.7190000     15.4420000
    432    144      3      0.0000000      8.6350000      8.4120000     14.2710000
    433    144      4      0.0000000      8.6580000      9.0310000     13.4260000
    434    144      4      0.0000000      9.5090000      7.9220000     14.4900000
    435    145      3      0.0000000      1.0190000     19.4440000     17.9930000
    436    145      4      0.0000000      1.0500000     18.4350000     17.9370000
    437    145      4      0.0000000      0.0040000     19.5980000     17.7480000
    438    146      3      0.0000000     10.4510000      4.6380000     21.2580000
    439    146      4      0.0000000      9.9940000      4.6590000     22.2250000
    440    146      4      0.0000000     10.9520000      3.7600000     20.9950000
    441    147      3      0.0000000     18.3800000     16.6080000     18.3660000
    442    147      4      0.0000000     17.8770000     15.7010000     18.1160000
    443    147      4      0.0000000     19.3880000     16.4840000     18.4080000
    444    148      3      0.0000000     25.1450000      0.9720000     12.3900000
    445    148      4      0.0000000     24.4760000      1.6370000     12.7000000
    446    148      4      0.0000000     25.7340000      0.9520000     13.2380000
    447    149      3      0.0000000     21.0050000     15.3400000     12.0250000
    448    149      4      0.0000000     21.7790000     15.1640000     12.6280000
    449    149      4      0.0000000     21.3720000     15.9910000     11.2820000
    450    150      3      0.0000000     23.6750000      7.9180000     13.8840000
    451    150      4      0.0000000     23.3710000      7.9580000     12.8660000
    452    150      4      0.0000000     23.7310000      8.8670000     14.2680000
    453    151      3      0.0000000     15.0870000      9.8280000     23.6900000
    454    151      4      0.0000000     14.6100000      9.9630000     22.8060000
    455    151      4      0.0000000     15.3920000      8.8330000     23.6360000
    456    152      3      0.0000000      4.5570000     10.1370000     19.7740000
    457    152      4      0.0000000      4.5830000     10.5960000     20.6190000
    458    152      4      0.0000000      5.4210000     10.2860000     19.2740000
    459    153      3      0.0000000     12.5030000      9.1610000      9.2790000
    460    153      4      0.0000000     13.2220000      9.7130000      8.7870000
    461    153      4      0.0000000     11.6490000      9.7810000      9.2900000
    462    154      3      0.0000000      4.6620000     15.9690000     16.4010000
    463    154      4      0.0000000      4.4680000     16.7920000     16.9860000
    464    154      4      0.0000000      4.7120000     16.3570000     15.3880000
    465    155      3      0.0000000     10.3840000      3.4790000     14.9960000
    466    155      4      0.0000000     10.3410000      4.5020000     14.8410000
    467    155      4      0.0000000      9.4490000      3.2480000     15.3740000
    468    156      3      0.0000000     25.1820000      3.7270000      7.1770000
    469    156      4      0.0000000     25.7040000      4.6020000      7.1680000
    470    156      4      0.0000000     25.8200000      2.9430000      6.9830000
    471    157      3      0.0000000     24.3990000     21.9600000      7.6090000
    472    157      4      0.0000000     24.9640000     21.1550000      7.9290000
    473    157      4      0.0000000     24.7890000     22.7770000      8.0490000
    474    158      3      0.0000000      4.6620000      7.5020000     20.7230000
    475    158      4      0.0000000      4.2250000      8.2490000     21.3740000
    476    158      4      0.0000000      4.0150000      7.4830000     19.9160000
    477    159      3      0.0000000     19.0200000     18.8220000     12.2510000
    478    159      4      0.0000000     19.8430000     19.3790000     11.9380000
    479    159      4      0.0000000     19.1330000     18.8120000     13.2740000
    480    160      3      0.0000000     13.1590000      5.8730000      8.8440000
    481    160      4      0.0000000     12.1560000      5.6980000      8.7470000
    482    160      4      0.0000000     13.5360000      6.0990000      7.9260000
    483    161      3      0.0000000     25.0520000     19.0970000      1.2720000
    484    161      4      0.0000000     26.0160000     18.8990000      1.5940000
    485    161      4      0.0000000     25.2400000     19.5570000      0.3880000
    486    162      3      0.0000000     16.9190000     11.6240000      8.9100000
    487    162      4      0.0000000     17.6290000     12.2380000      9.3390000
    488    162      4      0.0000000     17.3640000     11.3410000      7.9850000
    489    163      3      0.0000000     24.5850000      3.4500000     14.6380000
    490    163      4      0.0000000     23.7090000      3.1380000     14.1190000
    491    163      4      0.0000000     25.0030000      4.1120000     14.0300000
    492    164      3      0.0000000     22.9450000      2.4120000      7.7320000
    493    164      4      0.0000000     23.3040000      1.4690000      7.7190000
    494    164      4      0.0000000     23.6270000      3.1510000      7.4400000
    495    165      3      0.0000000      6.5960000      1.8880000     19.4120000
    496    165      4      0.0000000      6.7600000      2.4480000     20.2760000
    497    165      4      0.0000000      5.6870000      1.5520000     19.4660000
    498    166      3      0.0000000     -0.0730000     22.4760000     16.3330000
    499    166      4      0.0000000     -0.0620000     21.7100000     15.6740000
    500    166      4      0.0000000      0.7620000     22.6510000     16.9230000
    501    167      3      0.0000000     19.4050000     23.8340000     24.4300000
    502    167      4      0.0000000     19.7210000     23.1610000     23.7280000
    503    167      4      0.0000000     19.2420000     23.3140000     25.3220000
    504    168      3      0.0000000     16.1180000     18.0250000     18.2680000
    505    168      4      0.0000000     17.1090000     17.6770000     18.4490000
    506    168      4      0.0000000     15.7400000     17.3150000     17.6040000
    507    169      3      0.0000000     16.4010000     18.6550000      8.2030000
    508    169      4      0.0000000     16.5540000     19.2810000      9.0060000
    509    169      4      0.0000000     16.6890000     19.2020000      7.3590000
    510    170      3      0.0000000     16.6520000      2.3260000     11.5960000
    511    170      4      0.0000000     17.0440000      1.4060000     11.7880000
    512    170      4      0.0000000     17.2920000      2.9850000     12.0390000
    513    171      3      0.0000000     21.0110000      1.0300000     21.3630000
    514    171      4      0.0000000     21.0450000      0.7370000     22.3200000
    515    171      4      0.0000000     21.5840000      1.8700000     21.2200000
    516    172      3      0.0000000     19.7400000     22.1630000     18.2700000
    517    172      4      0.0000000     19.6640000     21.8460000     19.2310000
    518    172      4      0.0000000     18.9410000     22.8140000     18.1510000
    519    173      3      0.0000000      5.4360000     12.3700000      5.0960000
    520    173      4      0.0000000      5.3770000     11.4010000      5.4310000
    521    173      4      0.0000000      4.9140000     12.4140000      4.1950000
    522    174      3      0.0000000     10.7790000     15.1010000     14.5260000
    523    174      4      0.0000000     11.0370000     14.7200000     15.4890000
    524    174      4      0.0000000     10.4420000     16.0560000     14.6560000
    525    175      3      0.0000000     19.6620000     22.7850000      9.5590000
    526    175      4      0.0000000     19.6060000     22.2870000      8.6860000
    527    175      4      0.0000000     18.7800000     23.2520000      9.8730000
    528    176      3      0.0000000      4.9300000     17.3940000      9.7250000
    529    176      4      0.0000000      5.4150000     18.1180000     10.3370000
    530    176      4      0.0000000      3.9410000     17.5060000     10.0290000
    531    177      3      0.0000000     17.5590000     15.2380000     22.9070000
    532    177      4      0.0000000     16.9870000     14.5380000     22.4810000
    533    177      4      0.0000000     18.0970000     15.6690000     22.1720000
    534    178      3      0.0000000     10.9510000      6.5200000     14.6670000
    535    178      4      0.0000000     11.9490000      6.7280000     14.8270000
    536    178      4      0.0000000     10.4570000      6.8320000     15.5500000
    537    179      3      0.0000000     13.9230000     23.2610000     20.3910000
    538    179      4      0.0000000     14.9080000     23.2760000     20.1310000
    539    179      4      0.0000000     13.6550000     22.3460000     20.0220000
    540    180      3      0.0000000     17.8320000     12.3760000     24.5410000
    541    180      4      0.0000000     18.2780000     12.2210000     23.6340000
    542    180      4      0.0000000     16.8660000     12.2740000     24.3130000
    543    181      3      0.0000000     24.5810000      9.3680000      9.5830000
    544    181      4      0.0000000     25.4190000      8.9020000     10.0560000
    545    181      4      0.0000000     24.7510000     10.2800000      9.0930000
    546    182      3      0.0000000      3.4140000      3.5990000      2.2140000
    547    182      4      0.0000000      3.1890000      3.7730000      3.2380000
    548    182      4      0.0000000      3.7250000      2.6270000      2.0970000
    549    183      3      0.0000000     24.7000000      9.5540000     21.0380000
    550    183      4      0.0000000     24.0740000      8.7640000     21.0640000
    551    183      4      0.0000000     24.2780000     10.2890000     21.6170000
    552    184      3      0.0000000     23.2740000     12.6890000     11.4610000
    553    184      4      0.0000000     22.4140000     12.1610000     11.4490000
    554    184      4      0.0000000     23.2340000     13.3690000     10.6840000
    555    185      3      0.0000000     24.7370000      2.4070000      1.7240000
    556    185      4      0.0000000     25.1260000      1.4740000      1.4450000
    557    185      4      0.0000000     24.1970000      2.2480000      2.6100000
    558    186      3      0.0000000     15.1560000      1.5520000      5.9030000
    559    186      4      0.0000000     14.2320000      1.8370000      6.1460000
    560    186      4      0.0000000     15.7010000      2.3720000      5.5930000
    561    187      3      0.0000000     17.2560000     22.1430000     22.2470000
    562    187      4      0.0000000     17.4490000     23.1020000     22.5670000
    563    187      4      0.0000000     18.0170000     21.8840000     21.6510000
    564    188      3      0.0000000     25.1400000     16.8850000      8.5210000
    565    188      4      0.0000000     25.5720000     16.3740000      9.2860000
    566    188      4      0.0000000     25.1690000     16.3010000      7.7090000
    567    189      3      0.0000000     13.6670000      4.5230000     12.5570000
    568    189      4      0.0000000     13.2270000      4.0720000     11.7380000
    569    189      4      0.0000000     14.3430000      5.1350000     12.1530000
    570    190      3      0.0000000     16.1900000     22.4640000     16.4350000
    571    190      4      0.0000000     16.0640000     22.0420000     15.5160000
    572    190      4      0.0000000     15.8060000     21.7730000     17.0550000
    573    191      3      0.0000000     10.2500000      1.0550000      5.4920000
    574    191      4      0.0000000      9.3180000      1.2310000      5.7690000
    575    191      4      0.0000000     10.2120000      0.2870000      4.7690000
    576    192      3      0.0000000      9.6240000     22.9690000     14.6630000
    577    192      4      0.0000000      9.0250000     23.2800000     13.8490000
    578    192      4      0.0000000      9.2630000     22.3700000     15.4270000
    579    193      3      0.0000000      2.6080000     12.7280000     12.8950000
    580    193      4      0.0000000      1.7080000     12.4510000     12.4830000
    581    193      4      0.0000000      3.2040000     11.9350000     13.0780000
    582    194      3      0.0000000      9.0300000     19.9570000     20.6390000
    583    194      4      0.0000000      9.0210000     20.9590000     20.6520000
    584    194      4      0.0000000      9.9430000     19.5850000     20.2870000
    585    195      3      0.0000000      1.0320000     12.0610000      0.5900000
    586    195      4      0.0000000      0.1470000     12.3250000      1.0590000
    587    195      4      0.0000000      1.4760000     12.7790000      0.0360000
    588    196      3      0.0000000      2.4780000     14.3070000     10.0260000
    589    196      4      0.0000000      1.5220000     14.7200000     10.3080000
    590    196      4      0.0000000      2.3810000     13.3070000      9.7130000
    591    197      3      0.0000000      6.2620000     21.8350000     14.7750000
    592    197      4      0.0000000      6.1500000     22.8400000     14.5950000
    593    197      4      0.0000000      5.3030000     21.4630000     14.8780000
    594    198      3      0.0000000     23.3340000      1.9200000      4.0810000
    595    198      4      0.0000000     22.4640000      1.3970000      3.7120000
    596    198      4      0.0000000     23.7550000      1.2390000      4.7200000
    597    199      3      0.0000000      6.6500000     23.4820000     18.4810000
    598    199      4      0.0000000      7.1590000     22.7930000     17.9920000
    599    199      4      0.0000000      7.1550000     24.4060000     18.3980000
    600    200      3      0.0000000      7.6300000     12.1420000     24.6360000
    601    200      4      0.0000000      7.1410000     12.8340000     24.0730000
    602    200      4      0.0000000      8.4660000     11.8200000     24.1180000
    603    201      3      0.0000000     18.8460000     22.1430000      0.9440000
    604    201      4      0.0000000     17.9800000     22.2440000      1.5320000
    605    201      4      0.0000000     19.6140000     22.3110000      1.6380000
    606    202      3      0.0000000     15.3530000     20.2900000     22.5770000
    607    202      4      0.0000000     15.9970000     21.0170000     22.1740000
    608    202      4      0.0000000     15.9140000     19.7910000     23.3340000
    609    203      3      0.0000000     20.9780000     12.8250000      8.4450000
    610    203      4      0.0000000     21.3690000     11.9430000      8.7760000
    611    203      4      0.0000000     21.7700000     13.3090000      7.9760000
    612    204      3      0.0000000      4.5900000      0.3700000     16.9500000
    613    204      4      0.0000000      4.8340000      0.0940000     17.9030000
    614    204      4      0.0000000      3.6170000      0.7470000     16.9340000
    615    205      3      0.0000000      1.2790000      7.2310000     24.0990000
    616    205      4      0.0000000      1.7220000      8.0100000     23.6770000
    617    205      4      0.0000000      1.6730000      6.3430000     23.7160000
    618    206      3      0.0000000     25.5750000     15.3860000     10.9910000
    619    206      4      0.0000000     25.0940000     15.6770000     11.8220000
    620    206      4      0.0000000     24.8960000     14.8520000     10.4200000
    621    207      3      0.0000000     20.7940000     18.0630000      3.5160000
    622    207      4      0.0000000     21.0040000     19.0300000      3.8180000
    623    207      4      0.0000000     21.4070000     17.8150000      2.7470000
    624    208      3      0.0000000      7.8180000      3.8390000     17.9110000
    625    208      4      0.0000000      7.5010000      3.0700000     18.5400000
    626    208      4      0.0000000      7.9170000      3.4800000     16.9580000
    627    209      3      0.0000000     22.2310000      5.7760000     25.6700000
    628    209      4      0.0000000     23.0590000      6.3530000     25.5030000
    629    209      4      0.0000000     22.5270000      4.8030000     25.5680000
    630    210      3      0.0000000      2.0080000      5.8950000     14.8310000
    631    210      4      0.0000000      2.6560000      5.1960000     15.1660000
    632    210      4      0.0000000      1.3340000      5.9700000     15.6260000
    633    211      3      0.0000000      8.1880000     16.5720000      7.0210000
    634    211      4      0.0000000      8.4910000     15.9960000      7.8320000
    635    211      4      0.0000000      7.9860000     16.0260000      6.1960000
    636    212      3      0.0000000     20.2190000      4.6070000     19.9630000
    637    212      4      0.0000000     19.7960000      4.7090000     18.9690000
    638    212      4      0.0000000     19.6610000      3.8890000     20.3820000
    639    213      3      0.0000000     22.5660000     21.8130000      5.5250000
    640    213      4      0.0000000     23.1130000     21.1990000      4.8400000
    641    213      4      0.0000000     23.1160000     21.9960000      6.3490000
    642    214      3      0.0000000      0.9930000      6.4340000      2.7890000
    643    214      4      0.0000000      1.5570000      6.4680000      1.9750000
    644    214      4      0.0000000      1.4680000      6.9090000      3.5620000
    645    215      3      0.0000000      6.3260000      9.7590000     24.9380000
    646    215      4      0.0000000      6.4120000      9.5460000     25.9390000
    647    215      4      0.0000000      6.8550000     10.6290000     24.7500000
    648    216      3      0.0000000     18.7310000      7.2970000     10.9010000
    649    216      4      0.0000000     18.3280000      7.5010000     11.8200000
    650    216      4      0.0000000     18.0950000      7.8570000     10.2860000
    651    217      3      0.0000000     13.1430000     23.2020000     11.0540000
    652    217      4      0.0000000     12.4650000     23.9600000     10.9480000
    653    217      4      0.0000000     13.6920000     23.1300000     10.1820000
    654    218      3      0.0000000     18.5760000     13.5910000      9.5540000
    655    218      4      0.0000000     18.4370000     14.6160000      9.4330000
    656    218      4      0.0000000     19.5340000     13.4390000      9.1880000
    657    219      3      0.0000000     25.4380000      6.4730000     21.6230000
    658    219      4      0.0000000     24.3760000      6.7420000     21.5610000
    659    219      4      0.0000000     26.0230000      7.2880000     21.8870000
    660    220      3      0.0000000     15.4210000      7.0420000     16.6520000
    661    220      4      0.0000000     15.1230000      6.9600000     17.6320000
    662    220      4      0.0000000     15.0720000      7.9080000     16.2420000
    663    221      3      0.0000000      4.8700000      0.5830000      9.9670000
    664    221      4      0.0000000      4.9330000      1.1200000     10.8720000
    665    221      4      0.0000000      4.6320000     -0.4280000     10.0870000
    666    222      3      0.0000000      9.0470000     22.4200000     24.9060000
    667    222      4      0.0000000      8.9270000     21.8520000     25.7390000
    668    222      4      0.0000000      8.9080000     21.8380000     24.0450000
    669    223      3      0.0000000      8.8710000     14.7840000      8.8860000
    670    223      4      0.0000000      8.5730000     14.2090000      8.1230000
    671    223      4      0.0000000      8.0960000     14.8100000      9.6430000
    672    224      3      0.0000000      8.6390000      9.5050000      1.8950000
    673    224      4      0.0000000      8.1830000      9.6580000      2.7840000
    674    224      4      0.0000000      8.4190000      8.5330000      1.5620000
    675    225      3      0.0000000     21.0440000     16.2710000      5.5390000
    676    225      4      0.0000000     20.0470000     16.0100000      5.7810000
    677    225      4      0.0000000     21.0080000     17.0830000      4.8830000
    678    226      3      0.0000000     15.0120000     23.1420000      8.6720000
    679    226      4      0.0000000     14.9060000     24.1010000      8.2910000
    680    226      4      0.0000000     15.2720000     22.5350000      7.9490000
    681    227      3      0.0000000      0.7750000      0.4890000     14.8810000
    682    227      4      0.0000000      1.3030000      0.8120000     15.6960000
    683    227      4      0.0000000     -0.0970000     -0.0460000     15.2190000
    684    228      3      0.0000000      1.5200000     15.8440000     14.9070000
    685    228      4      0.0000000      1.3360000     14.8600000     15.2530000
    686    228      4      0.0000000      2.2620000     15.8320000     14.1750000
    687    229      3      0.0000000     12.6920000      6.0840000     22.0170000
    688    229      4      0.0000000     12.5590000      7.0090000     22.4420000
    689    229      4      0.0000000     11.8370000      5.8700000     21.4500000
    690    230      3      0.0000000     15.7970000      1.9150000     15.9650000
    691    230      4      0.0000000     15.1080000      2.0020000     16.7380000
    692    230      4      0.0000000     16.7060000      2.3580000     16.2760000
    693    231      3      0.0000000     11.5500000     13.9940000     16.8320000
    694    231      4      0.0000000     10.6510000     14.1930000     17.2750000
    695    231      4      0.0000000     11.9490000     13.3870000     17.5290000
    696    232      3      0.0000000     19.0580000     12.9410000      5.2500000
    697    232      4      0.0000000     18.5240000     12.1920000      5.6460000
    698    232      4      0.0000000     18.6650000     13.8350000      5.6080000
    699    233      3      0.0000000     15.0690000     11.9750000     13.2930000
    700    233      4      0.0000000     15.2200000     12.9990000     13.1860000
    701    233      4      0.0000000     14.1830000     12.0050000     13.8750000
    702    234      3      0.0000000      4.8650000      5.1640000     14.2850000
    703    234      4      0.0000000      5.1480000      6.0010000     14.8910000
    704    234      4      0.0000000      4.7060000      4.2640000     14.7990000
    705    235      3      0.0000000     24.1550000     24.6950000     15.4330000
    706    235      4      0.0000000     24.7350000     23.9500000     15.7550000
    707    235      4      0.0000000     23.2700000     24.2020000     15.0570000
    708    236      3      0.0000000     16.9280000      3.2010000      7.9590000
    709    236      4      0.0000000     15.9790000      2.9330000      8.2840000
    710    236      4      0.0000000     17.3910000      3.9870000      8.4880000
    711    237      3      0.0000000     16.3920000      2.1980000      1.6740000
    712    237      4      0.0000000     15.7200000      2.5870000      0.9600000
    713    237      4      0.0000000     16.0720000      1.2480000      2.0370000
    714    238      3      0.0000000     21.8770000      6.3560000     18.9550000
    715    238      4      0.0000000     21.2290000      5.6790000     19.4610000
    716    238      4      0.0000000     22.6370000      5.8530000     18.4720000
    717    239      3      0.0000000      5.1480000     22.4100000     24.8540000
    718    239      4      0.0000000      5.8980000     22.3760000     25.5510000
    719    239      4      0.0000000      5.4840000     21.8750000     24.0400000
    720    240      3      0.0000000      1.7650000     20.6130000     12.1680000
    721    240      4      0.0000000      1.1900000     21.2320000     11.6020000
    722    240      4      0.0000000      2.5820000     21.2350000     12.4510000
    723    241      3      0.0000000      0.5430000     11.0350000      4.3090000
    724    241      4      0.0000000     -0.2310000     10.3410000      4.1650000
    725    241      4      0.0000000      1.3790000     10.5770000      4.5760000
    726    242      3      0.0000000      9.4470000      1.8550000     11.2010000
    727    242      4      0.0000000     10.1390000      1.8870000     11.9550000
    728    242      4      0.0000000     10.0150000      1.9300000     10.3420000
    729    243      3      0.0000000     13.1150000     13.3850000     10.8840000
    730    243      4      0.0000000     12.8820000     14.2810000     11.3650000
    731    243      4      0.0000000     13.9300000     13.0560000     11.2480000
    732    244      3      0.0000000      4.9960000     16.9260000     14.0760000
    733    244      4      0.0000000      5.3130000     17.8250000     13.7850000
    734    244      4      0.0000000      4.2860000     16.5340000     13.4400000
    735    245      3      0.0000000     14.8010000     14.8430000     19.1050000
    736    245      4      0.0000000     13.9920000     14.1890000     18.9950000
    737    245      4      0.0000000     15.6220000     14.4860000     18.6200000
    738    246      3      0.0000000     14.6500000      8.3220000     10.5890000
    739    246      4      0.0000000     13.7420000      8.6090000     10.2460000
    740    246      4      0.0000000     14.7780000      7.3120000     10.5960000
    741    247      3      0.0000000     23.6540000      7.2380000      7.9490000
    742    247      4      0.0000000     23.9500000      8.0560000      8.4970000
    743    247      4      0.0000000     23.5390000      6.4020000      8.5990000
    744    248      3      0.0000000     12.2840000      8.1920000     18.3450000
    745    248      4      0.0000000     12.8040000      7.3390000     18.4690000
    746    248      4      0.0000000     11.5640000      7.8560000     17.7140000
    747    249      3      0.0000000      0.5800000     22.4200000     10.4640000
    748    249      4      0.0000000     -0.1700000     23.0730000     10.8340000
    749    249      4      0.0000000      1.1510000     22.9070000      9.6970000
    750    250      3      0.0000000      5.2370000     17.5450000     24.8450000
    751    250      4      0.0000000      5.9240000     17.5480000     25.6520000
    752    250      4      0.0000000      5.2200000     16.6060000     24.3240000
    753    251      3      0.0000000      5.4120000      5.5380000      1.4800000
    754    251      4      0.0000000      4.8730000      4.8270000      1.9670000
    755    251      4      0.0000000      5.0500000      5.4490000      0.5110000
    756    252      3      0.0000000     19.0610000     16.3010000     21.0810000
    757    252      4      0.0000000     20.0530000     16.6040000     21.0210000
    758    252      4      0.0000000     18.6610000     16.4140000     20.1060000
    759    253      3      0.0000000     11.7560000     21.9280000      2.3330000
    760    253      4      0.0000000     11.7850000     21.3560000      1.4600000
    761    253      4      0.0000000     11.3540000     21.2790000      3.0540000
    762    254      3      0.0000000     11.0970000      4.0600000     24.9190000
    763    254      4      0.0000000     11.2230000      3.0500000     24.6860000
    764    254      4      0.0000000     11.8400000      4.6220000     24.5110000
    765    255      3      0.0000000     19.9170000      8.5970000      4.2540000
    766    255      4      0.0000000     20.1040000      7.5980000      4.4340000
    767    255      4      0.0000000     20.3370000      8.6800000      3.3330000
    768    256      3      0.0000000     17.3240000     19.9390000      5.9330000
    769    256      4      0.0000000     17.1790000     19.2190000      5.2330000
    770    256      4      0.0000000     18.3380000     20.0710000      5.9960000
    771    257      3      0.0000000     20.9880000      7.3420000      1.9700000
    772    257      4      0.0000000     21.5940000      6.9280000      1.1830000
    773    257      4      0.0000000     21.1270000      6.6920000      2.7610000
    774    258      3      0.0000000      7.7990000      8.3710000      9.1130000
    775    258      4      0.0000000      7.0360000      7.7320000      9.4250000
    776    258      4      0.0000000      8.0280000      9.2630000      9.5540000
    777    259      3      0.0000000      4.5150000     14.9680000      8.4650000
    778    259      4      0.0000000      3.7300000     14.9420000      9.0940000
    779    259      4      0.0000000      4.9200000     15.8790000      8.6710000
    780    260      3      0.0000000      8.6260000      0.1400000     18.1720000
    781    260      4      0.0000000      8.2340000      0.9730000     18.6560000
    782    260      4      0.0000000      8.9190000      0.2830000     17.1690000
    783    261      3      0.0000000     14.5650000      4.2180000     21.6770000
    784    261      4      0.0000000     13.9610000      5.0220000     21.8090000
    785    261      4      0.0000000     15.3280000      4.4250000     22.1310000
    786    262      3      0.0000000      5.4490000     21.1150000     18.5350000
    787    262      4      0.0000000      5.8360000     22.0710000     18.6450000
    788    262      4      0.0000000      4.4270000     21.1140000     18.7030000
    789    263      3      0.0000000     17.0140000     24.4400000      7.0440000
    790    263      4      0.0000000     16.8000000     23.4940000      6.6630000
    791    263      4      0.0000000     17.2660000     25.0200000      6.2800000
    792    264      3      0.0000000     20.4570000      5.9520000     23.4610000
    793    264      4      0.0000000     20.9840000      6.0090000     24.3270000
    794    264      4      0.0000000     20.1870000      4.9680000     23.4200000
    795    265      3      0.0000000     12.1400000     14.7040000      5.7840000
    796    265      4      0.0000000     11.4870000     13.9770000      5.4560000
    797    265      4      0.0000000     12.0220000     14.7610000      6.8160000
    798    266      3      0.0000000      2.7140000      3.4990000     10.9820000
    799    266      4      0.0000000      2.8480000      2.8150000     10.2730000
    800    266      4      0.0000000      1.9210000      4.1170000     10.7660000
    801    267      3      0.0000000      4.2840000      9.8380000     10.3970000
    802    267      4      0.0000000      3.7030000      9.9190000     11.2310000
    803    267      4      0.0000000      5.1980000     10.2170000     10.6200000
    804    268      3      0.0000000     14.2560000      5.9020000     18.8920000
    805    268      4      0.0000000     13.6960000      5.0310000     18.6300000
    806    268      4      0.0000000     14.7950000      5.8130000     19.7580000
    807    269      3      0.0000000      4.5470000      2.1210000     12.6960000
    808    269      4      0.0000000      4.6160000      2.2950000     13.7170000
    809    269      4      0.0000000      3.9510000      2.7770000     12.2210000
    810    270      3      0.0000000     14.6780000      2.0080000      9.8630000
    811    270      4      0.0000000     15.4790000      2.0710000     10.5270000
    812    270      4      0.0000000     13.8800000      2.5520000     10.2450000
    813    271      3      0.0000000     15.6400000     14.6430000     12.9060000
    814    271      4      0.0000000     15.1470000     15.2370000     12.2030000
    815    271      4      0.0000000     15.9380000     15.4100000     13.5900000
    816    272      3      0.0000000     16.0870000     16.2880000      2.1550000
    817    272      4      0.0000000     15.1440000     16.0760000      2.5430000
    818    272      4      0.0000000     16.2560000     16.2040000      1.1350000
    819    273      3      0.0000000      5.6580000     15.6740000     19.2660000
    820    273      4      0.0000000      5.1770000     16.5490000     19.0290000
    821    273      4      0.0000000      6.0980000     15.8090000     20.2040000
    822    274      3      0.0000000     24.2920000     23.1760000      1.8780000
    823    274      4      0.0000000     25.1020000     22.6520000      1.6430000
    824    274      4      0.0000000     23.5580000     22.7080000      1.3130000
    825    275      3      0.0000000      0.0410000     19.3820000      8.2050000
    826    275      4      0.0000000      0.4240000     19.5390000      7.2360000
    827    275      4      0.0000000     -0.0350000     18.3100000      8.2370000
    828    276      3      0.0000000     22.1200000      2.4130000     10.2350000
    829    276      4      0.0000000     22.4840000      2.4450000      9.2660000
    830    276      4      0.0000000     21.1900000      1.9880000     10.2650000
    831    277      3      0.0000000     20.6360000      1.6890000      6.3230000
    832    277      4      0.0000000     19.9840000      1.4780000      7.0890000
    833    277      4      0.0000000     21.4950000      2.0670000      6.8260000
    834    278      3      0.0000000     14.3130000     16.4700000     16.7400000
    835    278      4      0.0000000     13.3350000     16.7100000     16.7640000
    836    278      4      0.0000000     14.5390000     15.8010000     17.5290000
    837    279      3      0.0000000     21.1830000      9.7290000     24.9270000
    838    279      4      0.0000000     20.3510000      9.2270000     25.2630000
    839    279      4      0.0000000     21.2270000      9.4830000     23.9070000
    840    280      3      0.0000000     12.5190000     11.3030000      2.1700000
    841    280      4      0.0000000     12.4480000     11.0920000      1.1680000
    842    280      4      0.0000000     12.7900000     12.3110000      2.1360000
    843    281      3      0.0000000      4.1780000     23.7380000      9.3870000
    844    281      4      0.0000000      4.3990000     22.7820000      8.9820000
    845    281      4      0.0000000      3.1620000     23.9360000      9.2960000
    846    282      3      0.0000000      3.5400000     22.3360000     13.2150000
    847    282      4      0.0000000      3.4570000     22.0820000     14.2500000
    848    282      4      0.0000000      2.8670000     23.0930000     13.0940000
    849    283      3      0.0000000     25.7210000      5.2250000     10.3990000
    850    283      4      0.0000000     25.6170000      5.4450000     11.4160000
    851    283      4      0.0000000     24.7940000      4.9520000      9.9920000
    852    284      3      0.0000000     19.3440000     15.8870000     24.8600000
    853    284      4      0.0000000     18.6820000     15.6490000     24.1420000
    854    284      4      0.0000000     19.0830000     16.6380000     25.5360000
    855    285      3      0.0000000     24.2760000     12.9430000      1.4630000
    856    285      4      0.0000000     23.5580000     12.2440000      1.7360000
    857    285      4      0.0000000     23.7900000     13.8760000      1.4630000
    858    286      3      0.0000000     23.7470000     16.7860000      4.9310000
    859    286      4      0.0000000     22.6690000     16.7140000      5.1370000
    860    286      4      0.0000000     24.2390000     16.3890000      5.7120000
    861    287      3      0.0000000     15.5320000     16.3900000     21.3220000
    862    287      4      0.0000000     15.3440000     15.9920000     20.3630000
    863    287      4      0.0000000     16.4820000     16.7390000     21.2000000
    864    288      3      0.0000000      8.2140000     21.6150000     16.7020000
    865    288      4      0.0000000      8.3490000     20.6080000     16.8810000
    866    288      4      0.0000000      7.4440000     21.6900000     16.0040000
    867    289      3      0.0000000     13.9260000     10.1490000     19.1690000
    868    289      4      0.0000000     14.2900000      9.3310000     19.6570000
    869    289      4      0.0000000     13.2300000      9.6990000     18.5970000
    870    290      3      0.0000000     22.7740000      2.4720000     12.8780000
    871    290      4      0.0000000     22.5780000      2.6740000     11.8780000
    872    290      4      0.0000000     21.9240000      1.9720000     13.2750000
    873    291      3      0.0000000     15.6690000      2.4410000     19.9380000
    874    291      4      0.0000000     15.1510000      3.1490000     20.4950000
    875    291      4      0.0000000     15.0880000      2.1560000     19.1000000
    876    292      3      0.0000000      1.6410000     24.1320000      8.5960000
    877    292      4      0.0000000      1.1430000     25.0070000      8.8530000
    878    292      4      0.0000000      1.7040000     23.8380000      7.5760000
    879    293      3      0.0000000      7.4240000     17.5050000     16.1480000
    880    293      4      0.0000000      6.6440000     17.0490000     15.7280000
    881    293      4      0.0000000      7.2250000     17.8570000     17.0640000
    882    294      3      0.0000000     20.5100000     22.0830000     22.6790000
    883    294      4      0.0000000     21.2870000     22.6790000     22.2780000
    884    294      4      0.0000000     20.9150000     21.2820000     23.2770000
    885    295      3      0.0000000      2.8390000     16.1410000     12.5380000
    886    295      4      0.0000000      2.4670000     15.2500000     12.1940000
    887    295      4      0.0000000      2.8560000     16.7620000     11.7080000
    888    296      3      0.0000000     19.0960000      8.7310000     18.3840000
    889    296      4      0.0000000     19.9800000      9.1750000     18.2230000
    890    296      4      0.0000000     18.4650000      9.2990000     17.8640000
    891    297      3      0.0000000      5.3260000     13.6140000     12.1280000
    892    297      4      0.0000000      5.4570000     13.7050000     13.1600000
    893    297      4      0.0000000      4.3090000     13.5320000     11.9030000
    894    298      3      0.0000000      1.8820000     22.5350000      6.2660000
    895    298      4      0.0000000      2.9090000     22.5040000      6.2430000
    896    298      4      0.0000000      1.7090000     21.6870000      5.7120000
    897    299      3      0.0000000      7.9850000      9.3500000      6.6160000
    898    299      4      0.0000000      8.5680000      8.8550000      5.9660000
    899    299      4      0.0000000      7.7900000      8.8580000      7.4900000
    900    300      3      0.0000000      5.8020000     22.6940000     11.4620000
    901    300      4      0.0000000      5.1790000     22.4610000     12.2540000
    902    300      4      0.0000000      5.2130000     23.0220000     10.7110000
    903    301      3      0.0000000     24.9130000     11.6720000      8.0650000
    904    301      4      0.0000000     24.6330000     11.4090000      7.0440000
    905    301      4      0.0000000     25.9430000     11.8380000      7.9720000
    906    302      3      0.0000000      1.9070000      1.5210000     19.6410000
    907    302      4      0.0000000      2.3660000      2.3990000     19.9160000
    908    302      4      0.0000000      0.8910000      1.6160000     19.8690000
    909    303      3      0.0000000      1.3140000     25.0730000      5.3250000
    910    303      4      0.0000000      1.8900000     25.2030000      4.4740000
    911    303      4      0.0000000      1.4750000     24.0210000      5.4150000
    912    304      3      0.0000000      6.9840000      3.3980000     21.7890000
    913    304      4      0.0000000      7.8000000      3.8700000     22.2930000
    914    304      4      0.0000000      6.1240000      4.0420000     21.8430000
    915    305      3      0.0000000     23.7780000     25.4870000      8.3620000
    916    305      4      0.0000000     22.9250000     25.1520000      8.8600000
    917    305      4      0.0000000     24.3980000     25.7560000      9.0970000
    918    306      3      0.0000000      2.7780000      3.9830000      5.1140000
    919    306      4      0.0000000      3.7170000      3.7240000      5.4530000
    920    306      4      0.0000000      2.1530000      3.3510000      5.5530000
    921    307      3      0.0000000     18.8320000     22.9910000      4.7710000
    922    307      4      0.0000000     18.4140000     23.9230000      4.9150000
    923    307      4      0.0000000     19.5450000     23.0260000      4.0730000
    924    308      3      0.0000000      3.5600000     18.6850000     23.1090000
    925    308      4      0.0000000      3.8890000     18.6350000     22.1100000
    926    308      4      0.0000000      4.2990000     18.3430000     23.7520000
    927    309      3      0.0000000     23.6930000     10.5150000     14.5710000
    928    309      4      0.0000000     24.3170000     10.7320000     13.7850000
    929    309      4      0.0000000     24.0330000     11.0620000     15.3890000
    930    310      3      0.0000000     12.4640000      3.5740000     10.5090000
    931    310      4      0.0000000     11.8840000      2.7240000     10.2300000
    932    310      4      0.0000000     12.4390000      4.2590000      9.7410000
    933    311      3      0.0000000      0.3980000      1.1330000      9.7150000
    934    311      4      0.0000000      0.1920000      1.0690000     10.6910000
    935    311      4      0.0000000      0.4100000      2.1410000      9.4760000
    936    312      3      0.0000000     21.2180000      6.5010000     10.9460000
    937    312      4      0.0000000     21.3440000      6.0180000     11.8980000
    938    312      4      0.0000000     20.3270000      7.0430000     10.9300000
    939    313      3      0.0000000     11.6360000     20.8440000     25.6040000
    940    313      4      0.0000000     10.8310000     20.9520000     24.9500000
    941    313      4      0.0000000     12.4100000     21.1030000     24.9480000
    942    314      3      0.0000000     24.3620000     19.9870000     10.6100000
    943    314      4      0.0000000     24.6780000     19.6850000      9.7290000
    944    314      4      0.0000000     25.0360000     20.7080000     10.9060000
    945    315      3      0.0000000     12.4830000     25.4410000     20.0530000
    946    315      4      0.0000000     11.6650000     24.8230000     20.0210000
    947    315      4      0.0000000     13.3260000     24.8030000     20.2540000
    948    316      3      0.0000000     17.7330000     10.3060000      0.8720000
    949    316      4      0.0000000     18.3820000     10.6070000      1.6530000
    950    316      4      0.0000000     17.9870000     10.7680000     -0.0110000
    951    317      3      0.0000000      6.2580000     24.6090000     15.0560000
    952    317      4      0.0000000      6.6690000     25.3400000     14.5020000
    953    317      4      0.0000000      5.5310000     24.9510000     15.6900000
    954    318      3      0.0000000     12.9410000     21.1830000     17.9770000
    955    318      4      0.0000000     12.3390000     21.9450000     17.6970000
    956    318      4      0.0000000     13.1770000     20.6520000     17.1250000
    957    319      3      0.0000000     11.1280000     19.0720000     19.0100000
    958    319      4      0.0000000     12.0430000     19.4570000     19.1800000
    959    319      4      0.0000000     11.2070000     18.9080000     17.9850000
    960    320      3      0.0000000     22.7770000     21.3240000     25.6060000
    961    320      4      0.0000000     22.0430000     20.7380000     25.1120000
    962    320      4      0.0000000     23.0680000     22.0170000     24.9160000
    963    321      3      0.0000000     10.3160000     17.4570000      3.0410000
    964    321      4      0.0000000     11.2330000     17.0680000      2.8570000
    965    321      4      0.0000000      9.6600000     17.0810000      2.3250000
    966    322      3      0.0000000     20.5500000      1.3960000     14.0720000
    967    322      4      0.0000000     21.0300000      1.2100000     14.9910000
    968    322      4      0.0000000     20.1590000      0.4600000     13.8580000
    969    323      3      0.0000000     14.9040000     14.1410000      5.7470000
    970    323      4      0.0000000     13.9450000     14.4770000      5.8080000
    971    323      4      0.0000000     15.2510000     14.0740000      6.7550000
    972    324      3      0.0000000     24.9410000     16.5730000     13.5800000
    973    324      4      0.0000000     24.7260000     17.5650000     13.4300000
    974    324      4      0.0000000     25.8300000     16.4260000     14.0830000
    975    325      3      0.0000000      7.3820000     19.1700000     18.3170000
    976    325      4      0.0000000      6.6680000     19.9370000     18.3530000
    977    325      4      0.0000000      8.0950000     19.3670000     19.0570000
    978    326      3      0.0000000     11.0090000     21.6370000      7.6750000
    979    326      4      0.0000000     10.4880000     21.2270000      6.8300000
    980    326      4      0.0000000     11.5030000     22.4530000      7.3430000
    981    327      3      0.0000000     13.1350000     21.4460000     13.1700000
    982    327      4      0.0000000     12.1650000     21.0710000     13.1550000
    983    327      4      0.0000000     13.1420000     22.2810000     12.5600000
    984    328      3      0.0000000     10.4080000      9.0790000     -0.2690000
    985    328      4      0.0000000     10.8160000      8.3390000      0.2960000
    986    328      4      0.0000000      9.7370000      9.4880000      0.3920000
    987    329      3      0.0000000      7.3980000     10.8870000     18.4560000
    988    329      4      0.0000000      8.0560000     10.3640000     17.7810000
    989    329      4      0.0000000      7.8550000     11.7770000     18.5940000
    990    330      3      0.0000000     20.3630000     10.1910000      8.7820000
    991    330      4      0.0000000     20.3190000     10.4190000      7.7850000
    992    330      4      0.0000000     20.3210000      9.1760000      8.8310000
    993    331      3      0.0000000     22.6510000     12.6020000     18.2840000
    994    331      4      0.0000000     23.2620000     11.7690000     18.3860000
    995    331      4      0.0000000     22.7410000     13.1110000     19.1760000
    996    332      3      0.0000000      1.7050000     12.2150000      7.0290000
    997    332      4      0.0000000      1.8630000     11.4730000      6.3300000
    998    332      4      0.0000000      2.2450000     13.0890000      6.7790000
    999    333      3      0.0000000     11.0560000     24.3530000     22.7130000
   1000    333      4      0.0000000     12.0130000     24.4810000     23.1680000
   1001    333      4      0.0000000     11.0820000     23.3840000     22.2830000
   1002    334      3      0.0000000      0.3680000     20.5640000     24.8560000
   1003    334      4      0.0000000      1.3860000     20.7800000     24.9640000
   1004    334      4      0.0000000     -0.1650000     21.4580000     24.6180000
   1005    335      3      0.0000000     12.5090000      2.2160000      6.3640000
   1006    335      4      0.0000000     12.8520000      3.1250000      6.0070000
   1007    335      4      0.0000000     11.6540000      1.8500000      6.0000000
   1008    336      3      0.0000000     13.1300000     17.0560000      8.9720000
   1009    336      4      0.0000000     13.7900000     16.5280000      9.6050000
   1010    336      4      0.0000000     12.2970000     16.4240000      8.7850000
   1011    337      3      0.0000000     21.1740000     13.0470000     22.9830000
   1012    337      4      0.0000000     21.0880000     13.5590000     23.8730000
   1013    337      4      0.0000000     20.4080000     12.3570000     22.9690000
   1014    338      3      0.0000000     18.7810000      6.1520000      6.8700000
   1015    338      4      0.0000000     19.6320000      6.6340000      7.0960000
   1016    338      4      0.0000000     19.0210000      5.5480000      6.0690000
   1017    339      3      0.0000000     17.6130000      0.3170000      4.6080000
   1018    339      4      0.0000000     17.3420000      1.2530000      4.8550000
   1019    339      4      0.0000000     17.3850000      0.0390000      3.5950000
   1020    340      3      0.0000000      9.6000000     20.0800000     23.3100000
   1021    340      4      0.0000000      9.3030000     19.9580000     22.3290000
   1022    340      4      0.0000000      9.9200000     19.1980000     23.6560000
   1023    341      3      0.0000000      5.5080000      9.7400000      5.3700000
   1024    341      4      0.0000000      5.5200000      9.1580000      4.5520000
   1025    341      4      0.0000000      6.1960000      9.4340000      6.0800000
   1026    342      3      0.0000000      8.8920000      9.8860000     16.4370000
   1027    342      4      0.0000000      8.4130000      9.2660000     15.7840000
   1028    342      4      0.0000000      9.2520000     10.7890000     16.0120000
   1029    343      3      0.0000000     13.9880000     20.3380000     15.6250000
   1030    343      4      0.0000000     14.8480000     20.0990000     15.2270000
   1031    343      4      0.0000000     13.4900000     20.7100000     14.7840000
   1032    344      3      0.0000000     22.5730000     24.4280000      3.7590000
   1033    344      4      0.0000000     23.1360000     24.5130000      4.6450000
   1034    344      4      0.0000000     23.2370000     24.1820000      2.9890000
   1035    345      3      0.0000000     18.7870000     21.9110000     14.7340000
   1036    345      4      0.0000000     18.9680000     21.2360000     15.4270000
   1037    345      4      0.0000000     18.2910000     21.2770000     14.1110000
   1038    346      3      0.0000000     21.1240000     14.4880000     16.2830000
   1039    346      4      0.0000000     21.7780000     14.9670000     15.6710000
   1040    346      4      0.0000000     21.6690000     13.7240000     16.8430000
   1041    347      3      0.0000000     15.0880000     24.6480000     15.1420000
   1042    347      4      0.0000000     15.2550000     25.4680000     15.7350000
   1043    347      4      0.0000000     15.4480000     23.8400000     15.6390000
   1044    348      3      0.0000000      5.5700000     21.8510000      4.6220000
   1045    348      4      0.0000000      6.0640000     21.8420000      3.7050000
   1046    348      4      0.0000000      5.9200000     22.5370000      5.2680000
   1047    349      3      0.0000000     11.0770000     18.8810000      8.6720000
   1048    349      4      0.0000000     11.9500000     18.3610000      8.4190000
   1049    349      4      0.0000000     11.3220000     19.8140000      8.4830000
   1050    350      3      0.0000000     24.1440000      5.9760000     16.0760000
   1051    350      4      0.0000000     23.7540000      5.1040000     15.6980000
   1052    350      4      0.0000000     23.6710000      6.7180000     15.5370000
   1053    351      3      0.0000000     18.8810000      8.0670000     25.1340000
   1054    351      4      0.0000000     18.3290000      7.2360000     25.0450000
   1055    351      4      0.0000000     18.5160000      8.5980000     25.9210000
   1056    352      3      0.0000000     17.1930000     15.7750000      8.2240000
   1057    352      4      0.0000000     17.0860000     16.7060000      8.6610000
   1058    352      4      0.0000000     16.3820000     15.2070000      8.4470000
   1059    353      3      0.0000000     14.2240000     13.4810000     21.8500000
   1060    353      4      0.0000000     14.5760000     13.2280000     22.8210000
   1061    353      4      0.0000000     14.1470000     14.5430000     21.8250000
   1062    354      3      0.0000000     19.7010000     11.5800000      2.6960000
   1063    354      4      0.0000000     19.4460000     12.0880000      3.5510000
   1064    354      4      0.0000000     20.0490000     12.2580000      1.9780000
   1065    355      3      0.0000000     17.0450000      8.9730000      9.5940000
   1066    355      4      0.0000000     17.2840000      9.9700000      9.5230000
   1067    355      4      0.0000000     16.2140000      8.8550000     10.1510000
   1068    356      3      0.0000000     14.6200000      7.2380000      6.8980000
   1069    356      4      0.0000000     15.6170000      7.5260000      7.1930000
   1070    356      4      0.0000000     14.3570000      7.8960000      6.1770000
   1071    357      3      0.0000000     10.0040000      7.5900000     17.0530000
   1072    357      4      0.0000000      9.6690000      7.0880000     17.9350000
   1073    357      4      0.0000000      9.4250000      8.4400000     16.8560000
   1074    358      3      0.0000000      0.2350000     18.1720000     20.6950000
   1075    358      4      0.0000000      0.8620000     17.3440000     20.5360000
   1076    358      4      0.0000000      0.3520000     18.2310000     21.7160000
   1077    359      3      0.0000000     16.8860000     20.1100000     10.4520000
   1078    359      4      0.0000000     17.7510000     19.5410000     10.5640000
   1079    359      4      0.0000000     17.0240000     21.0670000     10.7780000
   1080    360      3      0.0000000      8.9420000     16.6790000     22.4210000
   1081    360      4      0.0000000      7.9940000     16.3090000     22.4050000
   1082    360      4      0.0000000      9.1650000     17.1230000     23.3430000
   1083    361      3      0.0000000     23.4680000      4.6080000      4.6650000
   1084    361      4      0.0000000     23.3090000      3.6430000      4.3100000
   1085    361      4      0.0000000     23.9850000      4.4350000      5.4970000
   1086    362      3      0.0000000      6.4410000      7.3530000     11.8070000
   1087    362      4      0.0000000      5.7200000      6.7090000     12.0790000
   1088    362      4      0.0000000      6.4260000      8.1560000     12.3880000
   1089    363      3      0.0000000      8.2930000      5.8110000     10.6260000
   1090    363      4      0.0000000      9.0590000      5.7590000     11.2950000
   1091    363      4      0.0000000      7.5390000      6.4170000     11.0170000
   1092    364      3      0.0000000      7.3880000      0.8920000     12.7640000
   1093    364      4      0.0000000      8.1260000      1.3350000     12.1440000
   1094    364      4      0.0000000      6.4680000      1.3230000     12.6570000
   1095    365      3      0.0000000     18.9360000      5.3260000      1.5510000
   1096    365      4      0.0000000     19.4460000      6.2330000      1.4620000
   1097    365      4      0.0000000     18.8590000      5.1910000      2.5500000
   1098    366      3      0.0000000     18.1210000     10.8700000     16.8950000
   1099    366      4      0.0000000     18.8630000     11.2420000     16.3630000
   1100    366      4      0.0000000     17.3570000     10.6770000     16.1480000
   1101    367      3      0.0000000     16.3680000     24.9700000     20.2510000
   1102    367      4      0.0000000     16.6280000     25.9340000     20.1100000
   1103    367      4      0.0000000     16.7230000     24.7620000     21.2340000
   1104    368      3      0.0000000     13.3490000     24.0250000      1.2540000
   1105    368      4      0.0000000     12.8750000     23.1320000      1.5420000
   1106    368      4      0.0000000     14.2120000     23.8040000      0.7850000
   1107    369      3      0.0000000     23.2060000     23.9980000     19.4960000
   1108    369      4      0.0000000     24.1940000     23.9050000     19.7430000
   1109    369      4      0.0000000     22.8430000     23.0100000     19.2470000
   1110    370      3      0.0000000     12.3990000      8.4490000     23.3790000
   1111    370      4      0.0000000     12.6780000      9.2650000     22.8210000
   1112    370      4      0.0000000     11.7000000      8.6110000     24.1050000
   1113    371      3      0.0000000     15.2620000     13.8660000      8.3330000
   1114    371      4      0.0000000     16.0060000     13.1200000      8.3840000
   1115    371      4      0.0000000     14.3940000     13.5260000      8.6870000
   1116    372      3      0.0000000      9.6080000     17.4640000     14.8290000
   1117    372      4      0.0000000      9.3630000     17.9520000     13.8720000
   1118    372      4      0.0000000      8.7420000     17.6480000     15.3750000
   1119    373      3      0.0000000     23.6380000      2.7810000     22.9910000
   1120    373      4      0.0000000     23.0340000      2.8780000     23.8000000
   1121    373      4      0.0000000     23.7740000      3.7240000     22.7190000
   1122    374      3      0.0000000     19.2180000     20.7380000     20.7730000
   1123    374      4      0.0000000     18.9290000     19.8210000     21.1850000
   1124    374      4      0.0000000     19.8330000     21.3010000     21.4400000
   1125    375      3      0.0000000      9.6410000     13.9560000     25.7960000
   1126    375      4      0.0000000      8.9010000     13.3750000     25.4040000
   1127    375      4      0.0000000     10.5070000     13.9620000     25.1830000
   1128    376      3      0.0000000     16.5450000      5.9630000      0.2140000
   1129    376      4      0.0000000     17.4960000      5.7320000      0.5930000
   1130    376      4      0.0000000     15.9250000      5.9840000      1.0230000
   1131    377      3      0.0000000      1.6680000      9.5990000     20.8660000
   1132    377      4      0.0000000      2.1580000     10.3950000     20.4110000
   1133    377      4      0.0000000      0.7700000      9.9290000     21.3020000
   1134    378      3      0.0000000      9.9330000     11.3060000     23.5180000
   1135    378      4      0.0000000     10.0940000     10.4330000     23.9670000
   1136    378      4      0.0000000     10.0830000     11.2360000     22.4850000
   1137    379      3      0.0000000      9.1650000      5.7650000     19.1060000
   1138    379      4      0.0000000      9.6690000      5.2930000     19.8700000
   1139    379      4      0.0000000      8.6000000      5.0320000     18.6020000
   1140    380      3      0.0000000      8.8400000     20.7360000      5.6760000
   1141    380      4      0.0000000      8.6530000     21.7670000      5.5270000
   1142    380      4      0.0000000      8.1830000     20.2110000      6.2330000
   1143    381      3      0.0000000     11.7860000     18.3960000     16.3430000
   1144    381      4      0.0000000     11.0850000     18.0800000     15.6260000
   1145    381      4      0.0000000     12.5400000     18.7230000     15.7780000
   1146    382      3      0.0000000     23.3560000     11.4770000     22.3630000
   1147    382      4      0.0000000     23.7870000     11.1600000     23.2490000
   1148    382      4      0.0000000     22.8700000     12.3260000     22.5770000
   1149    383      3      0.0000000     16.9310000     12.9210000     21.1490000
   1150    383      4      0.0000000     15.9760000     13.2170000     21.2740000
   1151    383      4      0.0000000     16.9490000     12.5130000     20.2230000
   1152    384      3      0.0000000      6.7750000     13.3260000      7.6650000
   1153    384      4      0.0000000      6.1490000     13.8160000      8.2790000
   1154    384      4      0.0000000      6.1330000     12.7840000      7.0930000
   1155    385      3      0.0000000     13.9880000     21.8260000     24.4340000
   1156    385      4      0.0000000     13.7840000     22.7560000     24.0230000
   1157    385      4      0.0000000     14.8220000     21.4090000     23.9990000
   1158    386      3      0.0000000      6.8380000      2.1580000      0.2920000
   1159    386      4      0.0000000      6.6000000      1.8330000     -0.7030000
   1160    386      4      0.0000000      5.9900000      1.8720000      0.8430000
   1161    387      3      0.0000000     21.8150000     16.9850000     21.3250000
   1162    387      4      0.0000000     21.7850000     17.1810000     22.3130000
   1163    387      4      0.0000000     22.1990000     17.8590000     20.9870000
   1164    388      3      0.0000000     21.5740000      9.2380000     17.1380000
   1165    388      4      0.0000000     21.5550000      9.9510000     16.4080000
   1166    388      4      0.0000000     21.3780000      8.2890000     16.7500000
   1167    389      3      0.0000000     18.5060000     14.4240000     15.1850000
   1168    389      4      0.0000000     19.4470000     14.5290000     15.5710000
   1169    389      4      0.0000000     18.5050000     14.2430000     14.1710000
   1170    390      3      0.0000000      3.2200000     20.7330000     25.1230000
   1171    390      4      0.0000000      3.9150000     21.4860000     25.2410000
   1172    390      4      0.0000000      3.3960000     20.0230000     24.4090000
   1173    391      3      0.0000000     25.0090000      0.1750000     22.7060000
   1174    391      4      0.0000000     24.3070000      0.8030000     23.1050000
   1175    391      4      0.0000000     25.1490000      0.6330000     21.7600000
   1176    392      3      0.0000000      1.7200000     23.8000000     18.1490000
   1177    392      4      0.0000000      2.2960000     24.6630000     17.9870000
   1178    392      4      0.0000000      1.2270000     24.0060000     19.0590000
   1179    393      3      0.0000000     11.8610000     10.5840000      4.7920000
   1180    393      4      0.0000000     11.3880000     11.4390000      5.0980000
   1181    393      4      0.0000000     12.0310000     10.8700000      3.8110000
   1182    394      3      0.0000000      2.9130000     14.4130000      6.3900000
   1183    394      4      0.0000000      3.1270000     15.0360000      5.5940000
   1184    394      4      0.0000000      3.6430000     14.6010000      7.1040000
   1185    395      3      0.0000000     22.5090000     17.0830000      9.4070000
   1186    395      4      0.0000000     22.2720000     17.8500000      8.7090000
   1187    395      4      0.0000000     23.4580000     16.8790000      9.0540000
   1188    396      3      0.0000000      0.1830000     23.7890000     20.4790000
   1189    396      4      0.0000000      0.2840000     22.7530000     20.5510000
   1190    396      4      0.0000000      0.0800000     24.1470000     21.5110000
   1191    397      3      0.0000000     16.5200000     11.8240000     18.7590000
   1192    397      4      0.0000000     15.6340000     11.2750000     18.9520000
   1193    397      4      0.0000000     17.1140000     11.2780000     18.1490000
   1194    398      3      0.0000000      6.5440000     19.2430000     13.6320000
   1195    398      4      0.0000000      7.5450000     19.0850000     13.4170000
   1196    398      4      0.0000000      6.6870000     20.0540000     14.2320000
   1197    399      3      0.0000000     23.0710000      7.5980000     21.2380000
   1198    399      4      0.0000000     22.4210000      8.1420000     21.7810000
   1199    399      4      0.0000000     22.5410000      7.1500000     20.4590000
   1200    400      3      0.0000000     18.1890000      8.2680000     13.3680000
   1201    400      4      0.0000000     17.3000000      8.7540000     13.4120000
   1202    400      4      0.0000000     18.8190000      9.0450000     13.3460000
   1203    401      3      0.0000000      7.7560000      2.4520000     15.6180000
   1204    401      4      0.0000000      7.4450000      2.7720000     14.6660000
   1205    401      4      0.0000000      8.1100000      1.5030000     15.5930000
   1206    402      3      0.0000000     21.1020000     16.2260000     18.2570000
   1207    402      4      0.0000000     22.1230000     16.3340000     18.5390000
   1208    402      4      0.0000000     21.1140000     15.7130000     17.3590000
   1209    403      3      0.0000000     20.7220000      7.5580000      8.2930000
   1210    403      4      0.0000000     21.5550000      7.8690000      7.7200000
   1211    403      4      0.0000000     20.9320000      6.8940000      8.9890000
   1212    404      3      0.0000000      7.9840000     23.3170000      5.2480000
   1213    404      4      0.0000000      8.1850000     24.0540000      4.5630000
   1214    404      4      0.0000000      7.8200000     23.8000000      6.1670000
   1215    405      3      0.0000000      1.8700000     11.0090000     16.7590000
   1216    405      4      0.0000000      1.2260000     10.3510000     16.3100000
   1217    405      4      0.0000000      2.6520000     10.4990000     17.0830000
   1218    406      3      0.0000000     20.9040000      0.6610000      3.5780000
   1219    406      4      0.0000000     20.6440000      1.0460000      4.5040000
   1220    406      4      0.0000000     21.4210000     -0.2190000      3.7490000
   1221    407      3      0.0000000      1.0680000      8.2430000     10.8860000
   1222    407      4      0.0000000      1.3240000      7.3860000     10.4280000
   1223    407      4      0.0000000      1.3750000      8.2930000     11.8810000
   1224    408      3      0.0000000     15.0500000      8.5950000      1.4900000
   1225    408      4      0.0000000     15.6020000      8.6980000      2.3020000
   1226    408      4      0.0000000     15.4340000      9.0330000      0.6800000
   1227    409      3      0.0000000     21.3250000     10.8190000     11.1250000
   1228    409      4      0.0000000     20.7720000     10.6720000     10.2450000
   1229    409      4      0.0000000     21.9980000      9.9680000     11.2640000
   1230    410      3      0.0000000     11.1830000     21.9220000     21.3810000
   1231    410      4      0.0000000     11.8490000     21.1700000     21.1350000
   1232    410      4      0.0000000     10.9340000     22.5090000     20.5360000
   1233    411      3      0.0000000      1.9780000     14.4190000     18.8450000
   1234    411      4      0.0000000      1.2390000     13.8670000     19.2630000
   1235    411      4      0.0000000      2.1800000     15.0940000     19.5650000
   1236    412      3      0.0000000     19.1480000     25.2620000     16.6240000
   1237    412      4      0.0000000     20.0150000     25.6990000     16.9990000
   1238    412      4      0.0000000     18.6410000     24.7480000     17.3410000
   1239    413      3      0.0000000      2.9370000     14.5350000     22.7620000
   1240    413      4      0.0000000      2.2540000     13.7980000     22.9930000
   1241    413      4      0.0000000      3.8010000     14.5480000     23.2840000
   1242    414      3      0.0000000     24.6120000      1.1080000     19.8570000
   1243    414      4      0.0000000     23.8550000      1.6920000     20.2730000
   1244    414      4      0.0000000     24.1960000      0.3650000     19.3010000
   1245    415      3      0.0000000     14.5410000      9.9490000      5.6260000
   1246    415      4      0.0000000     15.0990000     10.1130000      4.7240000
   1247    415      4      0.0000000     13.5180000     10.0880000      5.4690000
   1248    416      3      0.0000000     16.0520000      5.8030000      2.8980000
   1249    416      4      0.0000000     16.1590000      6.7490000      3.2360000
   1250    416      4      0.0000000     15.1430000      5.4340000      3.1070000
   1251    417      3      0.0000000     16.7940000      3.7700000     23.8670000
   1252    417      4      0.0000000     16.5820000      4.5010000     24.6460000
   1253    417      4      0.0000000     17.6120000      4.1190000     23.3610000
   1254    418      3      0.0000000      4.4180000      0.4250000     19.9610000
   1255    418      4      0.0000000      4.5620000     -0.5560000     20.2740000
   1256    418      4      0.0000000      3.4740000      0.7790000     20.1180000
   1257    419      3      0.0000000     10.7850000      8.1570000      5.6890000
   1258    419      4      0.0000000     10.9510000      7.7590000      6.6550000
   1259    419      4      0.0000000     11.2460000      9.0210000      5.5970000
   1260    420      3      0.0000000     21.4790000     24.8700000      9.5700000
   1261    420      4      0.0000000     20.8230000     24.1250000      9.4060000
   1262    420      4      0.0000000     21.0470000     25.7150000     10.0160000
   1263    421      3      0.0000000     14.4900000      9.5120000     15.3210000
   1264    421      4      0.0000000     15.3140000     10.0120000     14.9160000
   1265    421      4      0.0000000     13.5730000      9.5970000     14.8060000
   1266    422      3      0.0000000     10.2620000     12.4160000     11.2930000
   1267    422      4      0.0000000      9.7260000     13.2220000     11.6810000
   1268    422      4      0.0000000     11.2310000     12.7120000     11.2580000
   1269    423      3      0.0000000     21.0430000     11.0160000     20.6230000
   1270    423      4      0.0000000     21.9650000     11.0460000     21.0780000
   1271    423      4      0.0000000     21.2390000     11.3590000     19.6930000
   1272    424      3      0.0000000      2.1850000      1.4820000     17.0150000
   1273    424      4      0.0000000      1.8330000      2.3910000     16.6190000
   1274    424      4      0.0000000      2.0110000      1.5650000     18.0220000
   1275    425      3      0.0000000      2.3870000      9.8970000      1.9160000
   1276    425      4      0.0000000      1.9370000     10.8420000      1.9830000
   1277    425      4      0.0000000      1.9000000      9.3390000      1.1900000
   1278    426      3      0.0000000     10.1200000     21.9800000     10.0560000
   1279    426      4      0.0000000     10.3760000     23.0010000     10.0960000
   1280    426      4      0.0000000     10.3360000     21.6750000      9.0750000
   1281    427      3      0.0000000      7.2180000      3.4320000     10.3320000
   1282    427      4      0.0000000      7.6100000      4.4380000     10.2840000
   1283    427      4      0.0000000      8.0000000      2.8180000     10.5890000
   1284    428      3      0.0000000     21.6670000      4.0900000     15.9300000
   1285    428      4      0.0000000     21.7060000      3.0840000     16.1280000
   1286    428      4      0.0000000     21.0120000      4.5630000     16.5190000
   1287    429      3      0.0000000      9.2410000     15.2050000     17.6710000
   1288    429      4      0.0000000      9.5390000     15.7850000     18.5970000
   1289    429      4      0.0000000      8.8590000     15.8300000     17.0070000
   1290    430      3      0.0000000     19.5580000     10.7460000     13.1850000
   1291    430      4      0.0000000     20.1680000     10.9400000     14.0560000
   1292    430      4      0.0000000     20.0150000     11.0120000     12.3440000
   1293    431      3      0.0000000     15.6710000      7.1760000     23.1110000
   1294    431      4      0.0000000     16.6070000      6.8420000     22.6960000
   1295    431      4      0.0000000     15.6470000      7.0360000     24.1220000
   1296    432      3      0.0000000      1.5930000     17.4920000      4.5490000
   1297    432      4      0.0000000      0.9760000     16.8520000      5.0610000
   1298    432      4      0.0000000      2.4060000     17.0480000      4.0740000
   1299    433      3      0.0000000     25.6240000      6.5770000      6.3210000
   1300    433      4      0.0000000     24.7800000      6.6350000      6.9010000
   1301    433      4      0.0000000     25.2890000      6.8450000      5.3430000
   1302    434      3      0.0000000      9.7150000     11.8430000     14.5900000
   1303    434      4      0.0000000     10.3950000     12.6250000     14.6310000
   1304    434      4      0.0000000      9.1250000     12.0800000     13.8140000
   1305    435      3      0.0000000     17.5230000     23.7770000     18.2180000
   1306    435      4      0.0000000     16.9470000     24.2100000     18.9800000
   1307    435      4      0.0000000     16.9010000     23.2580000     17.5600000
   1308    436      3      0.0000000     23.9240000     10.4860000     24.7290000
   1309    436      4      0.0000000     23.0060000     10.1270000     24.8720000
   1310    436      4      0.0000000     24.4750000     10.5380000     25.6240000
   1311    437      3      0.0000000     12.2820000     11.8260000     24.7180000
   1312    437      4      0.0000000     11.3920000     11.5400000     24.2540000
   1313    437      4      0.0000000     13.0250000     11.6040000     24.1240000
   1314    438      3      0.0000000     19.1500000     18.0560000     15.1220000
   1315    438      4      0.0000000     18.3360000     17.4660000     14.8620000
   1316    438      4      0.0000000     18.7850000     18.5170000     15.9280000
   1317    439      3      0.0000000      6.3990000     17.6090000      1.8110000
   1318    439      4      0.0000000      5.5150000     17.9720000      2.1460000
   1319    439      4      0.0000000      6.9900000     17.1410000      2.4930000
   1320    440      3      0.0000000     10.3340000     24.4740000     10.7730000
   1321    440      4      0.0000000      9.8180000     24.8150000      9.9110000
   1322    440      4      0.0000000      9.6040000     24.3250000     11.4500000
   1323    441      3      0.0000000     17.7810000      6.1970000     15.5080000
   1324    441      4      0.0000000     16.8750000      6.4410000     15.9200000
   1325    441      4      0.0000000     17.7370000      6.3590000     14.5090000
   1326    442      3      0.0000000      1.3430000     25.0060000     24.3820000
   1327    442      4      0.0000000      2.2740000     24.9690000     23.8310000
   1328    442      4      0.0000000      0.6110000     25.3640000     23.7170000
   1329    443      3      0.0000000     19.8050000      1.3150000     10.4680000
   1330    443      4      0.0000000     19.1240000      0.8550000     11.1240000
   1331    443      4      0.0000000     19.3330000      1.2450000      9.5330000
   1332    444      3      0.0000000     11.6280000     14.6750000      8.6660000
   1333    444      4      0.0000000     10.6470000     14.4380000      8.4170000
   1334    444      4      0.0000000     11.9130000     14.1480000      9.4630000
   1335    445      3      0.0000000      4.3650000     12.7290000     21.0570000
   1336    445      4      0.0000000      3.7110000     13.4750000     21.2350000
   1337    445      4      0.0000000      4.5550000     12.7990000     20.0570000
   1338    446      3      0.0000000      2.3820000      7.5410000      7.2330000
   1339    446      4      0.0000000      2.8620000      7.3160000      8.1300000
   1340    446      4      0.0000000      1.4070000      7.1550000      7.1660000
   1341    447      3      0.0000000      9.9650000     16.7630000     19.8510000
   1342    447      4      0.0000000      9.5200000     16.7500000     20.8090000
   1343    447      4      0.0000000     10.6720000     17.5080000     19.7250000
   1344    448      3      0.0000000     12.0960000      2.5720000     21.0040000
   1345    448      4      0.0000000     12.2610000      1.6490000     20.6920000
   1346    448      4      0.0000000     13.0340000      3.0900000     21.2380000
   1347    449      3      0.0000000     14.3470000     19.3030000      1.3640000
   1348    449      4      0.0000000     14.2490000     19.2020000      2.3540000
   1349    449      4      0.0000000     13.9960000     20.1620000      1.0350000
   1350    450      3      0.0000000      8.8450000     16.5060000      1.1030000
   1351    450      4      0.0000000      9.1310000     15.5850000      0.9030000
   1352    450      4      0.0000000      7.8560000     16.6290000      0.8900000
   1353    451      3      0.0000000     21.1800000      5.6600000     13.6670000
   1354    451      4      0.0000000     21.4220000      4.9270000     14.4370000
   1355    451      4      0.0000000     20.7590000      6.3990000     14.1990000
   1356    452      3      0.0000000     24.2680000     12.9570000     15.8960000
   1357    452      4      0.0000000     24.0530000     12.8630000     16.8540000
   1358    452      4      0.0000000     25.2120000     13.0240000     15.6000000
   1359    453      3      0.0000000      5.0890000      4.6870000     17.5340000
   1360    453      4      0.0000000      6.0160000      4.1770000     17.5790000
   1361    453      4      0.0000000      5.2770000      5.6020000     17.0740000
   1362    454      3      0.0000000     19.2240000     24.5390000     13.9520000
   1363    454      4      0.0000000     19.0640000     24.8540000     14.9270000
   1364    454      4      0.0000000     19.0630000     23.5090000     13.9700000
   1365    455      3      0.0000000     18.6430000      2.4380000     16.2130000
   1366    455      4      0.0000000     18.8890000      2.5730000     15.2170000
   1367    455      4      0.0000000     18.3560000      1.4210000     16.4210000
   1368    456      3      0.0000000      3.9400000     25.2890000     23.5090000
   1369    456      4      0.0000000      4.8760000     25.3340000     23.9530000
   1370    456      4      0.0000000      4.1130000     25.1800000     22.5330000
   1371    457      3      0.0000000      2.2790000     19.0080000     14.9280000
   1372    457      4      0.0000000      2.1080000     18.0430000     14.5970000
   1373    457      4      0.0000000      1.4110000     19.3300000     15.3440000
   1374    458      3      0.0000000      4.0620000     20.2530000      6.2990000
   1375    458      4      0.0000000      4.5250000     20.1840000      7.2010000
   1376    458      4      0.0000000      4.6710000     20.8090000      5.6460000
   1377    459      3      0.0000000      7.5540000      3.9680000     13.3660000
   1378    459      4      0.0000000      7.5830000      3.5660000     12.3890000
   1379    459      4      0.0000000      6.6230000      4.3710000     13.5150000
   1380    460      3      0.0000000     17.7330000      5.3520000      9.3960000
   1381    460      4      0.0000000     18.2030000      5.7460000      8.6080000
   1382    460      4      0.0000000     17.9930000      5.7790000     10.2520000
   1383    461      3      0.0000000      5.9460000     20.8850000     22.8620000
   1384    461      4      0.0000000      6.0150000     19.8760000     22.6580000
   1385    461      4      0.0000000      6.1650000     21.4900000     22.0520000
   1386    462      3      0.0000000     22.6870000     14.0990000      6.6550000
   1387    462      4      0.0000000     23.0440000     13.4310000      5.9610000
   1388    462      4      0.0000000     22.0960000     14.7550000      6.1630000
   1389    463      3      0.0000000      8.0790000      3.1890000      5.1050000
   1390    463      4      0.0000000      7.2290000      3.7870000      5.3760000
   1391    463      4      0.0000000      8.9490000      3.6050000      5.2140000
   1392    464      3      0.0000000     20.8070000     22.6930000      2.7550000
   1393    464      4      0.0000000     21.4000000     23.4660000      3.1450000
   1394    464      4      0.0000000     21.2810000     21.7940000      2.7990000
   1395    465      3      0.0000000      2.0430000      4.8300000     22.9770000
   1396    465      4      0.0000000      2.2700000      3.9310000     23.4870000
   1397    465      4      0.0000000      1.1090000      4.6470000     22.5600000
   1398    466      3      0.0000000      4.0720000      8.6660000     23.2800000
   1399    466      4      0.0000000      4.9250000      9.0560000     23.6370000
   1400    466      4      0.0000000      3.3520000      9.4160000     23.3690000
   1401    467      3      0.0000000      4.4100000     13.7310000      2.5170000
   1402    467      4      0.0000000      3.8620000     13.5910000      1.6790000
   1403    467      4      0.0000000      5.2390000     13.1700000      2.3880000
   1404    468      3      0.0000000     11.7360000      2.6580000      3.0180000
   1405    468      4      0.0000000     11.8790000      1.9930000      2.2310000
   1406    468      4      0.0000000     10.7160000      2.8510000      2.9340000
   1407    469      3      0.0000000     24.3950000     24.1260000     11.0770000
   1408    469      4      0.0000000     24.3160000     24.9800000     11.7000000
   1409    469      4      0.0000000     23.4740000     23.8300000     11.1470000
   1410    470      3      0.0000000      0.4000000     15.5470000      6.1410000
   1411    470      4      0.0000000      0.0880000     14.8070000      5.5240000
   1412    470      4      0.0000000      1.2700000     15.1450000      6.5750000
   1413    471      3      0.0000000     22.2560000      1.3290000     16.2360000
   1414    471      4      0.0000000     23.1120000      0.8240000     15.9830000
   1415    471      4      0.0000000     21.8470000      1.1700000     17.1770000
   1416    472      3      0.0000000      6.5770000     18.4260000     21.3100000
   1417    472      4      0.0000000      7.5390000     18.7170000     21.3180000
   1418    472      4      0.0000000      6.4920000     17.4910000     21.7640000
   1419    473      3      0.0000000      6.9520000     15.4620000     10.5970000
   1420    473      4      0.0000000      6.5070000     16.3090000     10.2340000
   1421    473      4      0.0000000      6.2070000     14.8510000     11.1230000
   1422    474      3      0.0000000     17.6150000     16.7360000     11.1110000
   1423    474      4      0.0000000     18.3440000     17.3900000     11.4840000
   1424    474      4      0.0000000     17.5830000     15.9140000     11.7260000
   1425    475      3      0.0000000     16.5640000     17.8430000      4.4560000
   1426    475      4      0.0000000     15.7490000     17.8510000      5.0840000
   1427    475      4      0.0000000     16.3050000     17.4610000      3.5630000
   1428    476      3      0.0000000      8.8090000     24.4800000      1.0370000
   1429    476      4      0.0000000      8.9880000     25.2990000      0.4440000
   1430    476      4      0.0000000      9.1050000     23.6870000      0.4780000
   1431    477      3      0.0000000      7.5710000     21.3560000      9.2950000
   1432    477      4      0.0000000      7.8240000     20.4860000      8.7740000
   1433    477      4      0.0000000      8.3500000     21.6630000      9.8600000
   1434    478      3      0.0000000     23.8820000      9.4930000      3.5390000
   1435    478      4      0.0000000     23.7010000      8.4350000      3.5590000
   1436    478      4      0.0000000     23.4410000      9.7560000      2.6410000
   1437    479      3      0.0000000      3.7740000      5.7910000     11.7040000
   1438    479      4      0.0000000      3.5590000      4.9130000     11.1690000
   1439    479      4      0.0000000      4.0290000      5.3360000     12.6160000
   1440    480      3      0.0000000     21.6330000     17.4730000     24.0280000
   1441    480      4      0.0000000     22.5340000     17.0550000     24.1960000
   1442    480      4      0.0000000     20.8990000     16.8200000     24.3410000
   1443    481      3      0.0000000     12.5180000     -0.2190000     15.3210000
   1444    481      4      0.0000000     12.3400000      0.6940000     14.9050000
   1445    481      4      0.0000000     13.5250000     -0.4000000     15.2310000
   1446    482      3      0.0000000     17.1100000     14.1870000     17.5040000
   1447    482      4      0.0000000     17.1120000     13.2350000     17.9360000
   1448    482      4      0.0000000     17.4680000     14.1490000     16.5370000
   1449    483      3      0.0000000     14.5010000     17.6770000      6.2230000
   1450    483      4      0.0000000     13.8930000     17.3250000      6.9290000
   1451    483      4      0.0000000     15.2890000     18.0410000      6.7860000
   1452    484      3      0.0000000      1.0950000     13.1480000     15.3070000
   1453    484      4      0.0000000      1.3450000     12.4910000     16.0270000
   1454    484      4      0.0000000      1.8160000     13.1050000     14.5830000
   1455    485      3      0.0000000     11.2230000      8.3100000     11.5370000
   1456    485      4      0.0000000     11.2640000      7.2610000     11.3710000
   1457    485      4      0.0000000     11.6470000      8.7550000     10.7080000
   1458    486      3      0.0000000     22.2050000     22.9060000     13.9770000
   1459    486      4      0.0000000     22.5050000     22.6780000     13.0390000
   1460    486      4      0.0000000     21.3440000     22.3500000     14.1840000
   1461    487      3      0.0000000      7.4260000      7.4390000     20.9000000
   1462    487      4      0.0000000      6.3660000      7.5010000     20.8410000
   1463    487      4      0.0000000      7.7920000      6.9210000     20.0740000
   1464    488      3      0.0000000     18.6470000      2.5630000      0.3010000
   1465    488      4      0.0000000     18.7580000      3.5720000      0.6140000
   1466    488      4      0.0000000     17.8750000      2.0820000      0.8400000
   1467    489      3      0.0000000     12.9630000     20.1090000     20.8200000
   1468    489      4      0.0000000     13.8970000     20.3720000     21.1840000
   1469    489      4      0.0000000     12.7540000     19.2080000     21.2390000
   1470    490      3      0.0000000      4.0280000     18.7140000      3.4710000
   1471    490      4      0.0000000      4.1400000     18.9780000      4.4540000
   1472    490      4      0.0000000      4.0450000     17.6770000      3.4210000
   1473    491      3      0.0000000     20.9290000      5.6950000      4.2290000
   1474    491      4      0.0000000     21.8860000      5.4290000      4.3090000
   1475    491      4      0.0000000     20.3930000      4.9910000      4.6810000
   1476    492      3      0.0000000     17.3420000      6.8510000     19.5160000
   1477    492      4      0.0000000     17.9780000      7.5560000     19.1460000
   1478    492      4      0.0000000     16.4350000      7.2560000     19.7580000
   1479    493      3      0.0000000     12.8270000     24.0970000      4.7500000
   1480    493      4      0.0000000     11.9460000     24.1730000      4.2430000
   1481    493      4      0.0000000     13.3620000     24.8500000      4.3570000
   1482    494      3      0.0000000     23.9380000     20.1240000     17.2290000
   1483    494      4      0.0000000     24.2080000     20.8800000     16.6240000
   1484    494      4      0.0000000     23.1160000     19.6940000     16.8340000
   1485    495      3      0.0000000     25.2870000      5.7860000     13.0530000
   1486    495      4      0.0000000     24.6470000      6.5300000     13.4210000
   1487    495      4      0.0000000     26.1620000      5.8280000     13.6570000
   1488    496      3      0.0000000      5.4980000      1.4990000      4.4830000
   1489    496      4      0.0000000      5.2660000      0.9630000      5.3460000
   1490    496      4      0.0000000      5.5440000      2.4820000      4.6870000
   1491    497      3      0.0000000      3.3250000     24.0070000      0.9140000
   1492    497      4      0.0000000      4.1770000     23.6020000      0.4410000
   1493    497      4      0.0000000      2.8370000     24.3700000      0.0930000
   1494    498      3      0.0000000      5.0720000      7.6920000      3.2540000
   1495    498      4      0.0000000      4.2140000      7.4250000      3.7460000
   1496    498      4      0.0000000      5.2910000      6.8480000      2.6790000
   1497    499      3      0.0000000     22.8600000      2.8970000      0.0070000
   1498    499      4      0.0000000     23.7050000      2.7050000      0.5720000
   1499    499      4      0.0000000     22.0420000      2.3280000      0.4340000
   1500    500      3      0.0000000     22.9490000     11.2370000      5.5860000
   1501    500      4      0.0000000     22.0480000     10.9130000      5.9570000
   1502    500      4      0.0000000     23.2480000     10.6270000      4.8620000
   1503    501      3      0.0000000     15.8500000     15.6460000     25.1160000
   1504    501      4      0.0000000     14.8490000     15.3700000     25.0430000
   1505    501      4      0.0000000     16.3150000     15.3160000     24.2650000
   1506    502      3      0.0000000     10.3690000     12.5630000      5.5940000
   1507    502      4      0.0000000      9.8350000     12.3230000      4.7420000
   1508    502      4      0.0000000      9.9710000     12.1290000      6.4410000
   1509    503      3      0.0000000      2.4790000     16.4150000     20.8400000
   1510    503      4      0.0000000      2.8250000     15.6840000     21.5830000
   1511    503      4      0.0000000      3.1830000     17.2010000     20.9570000
   1512    504      3      0.0000000     14.4800000     21.8180000      4.0600000
   1513    504      4      0.0000000     13.5650000     22.2640000      4.2890000
   1514    504      4      0.0000000     14.2030000     20.8260000      3.9550000
   1515    505      3      0.0000000      3.4960000      2.1620000      8.4210000
   1516    505      4      0.0000000      4.3140000      2.6370000      8.2120000
   1517    505      4      0.0000000      3.8630000      1.3750000      8.9730000
   1518    506      3      0.0000000     17.5280000     11.0190000      6.3490000
   1519    506      4      0.0000000     17.4500000      9.9850000      6.5750000
   1520    506      4      0.0000000     16.8440000     11.2850000      5.6600000
   1521    507      3      0.0000000     20.4500000     10.5430000      6.1420000
   1522    507      4      0.0000000     20.1890000      9.8210000      5.4750000
   1523    507      4      0.0000000     19.9560000     11.3930000      5.9710000
   1524    508      3      0.0000000      4.1520000     18.6100000     20.4450000
   1525    508      4      0.0000000      3.7770000     18.4240000     19.4700000
   1526    508      4      0.0000000      5.1870000     18.5300000     20.4550000
   1527    509      3      0.0000000      9.9920000     17.8560000     24.6870000
   1528    509      4      0.0000000     10.9630000     17.8590000     24.9060000
   1529    509      4      0.0000000      9.7350000     17.2470000     25.4880000
   1530    510      3      0.0000000      5.5180000      3.9970000      5.8830000
   1531    510      4      0.0000000      5.9260000      3.4650000      6.7120000
   1532    510      4      0.0000000      5.4250000      5.0060000      6.2080000
   1533    511      3      0.0000000      7.4650000     -0.0480000      3.5790000
   1534    511      4      0.0000000      7.3650000     -0.3800000      2.5940000
   1535    511      4      0.0000000      6.5830000      0.4490000      3.9490000
   1536    512      3      0.0000000      9.6990000      0.4970000     15.4000000
   1537    512      4      0.0000000     10.1890000      0.9760000     14.6380000
   1538    512      4      0.0000000      9.9380000     -0.5040000     15.2160000
   1539    513      3      0.0000000      0.9020000      7.8370000     18.9670000
   1540    513      4      0.0000000      0.6240000      6.8770000     19.2940000
   1541    513      4      0.0000000      1.1770000      8.3520000     19.8040000
   1542    514      3      0.0000000     13.1860000     10.8940000     21.8130000
   1543    514      4      0.0000000     13.2580000     11.9490000     21.8270000
   1544    514      4      0.0000000     13.2470000     10.4940000     20.8550000
   1545    515      3      0.0000000      0.5800000      8.6250000     16.2680000
   1546    515      4      0.0000000      0.6010000      8.4280000     17.2740000
   1547    515      4      0.0000000     -0.1240000      8.1000000     15.8280000
   1548    516      3      0.0000000      9.5500000      9.6930000     20.7820000
   1549    516      4      0.0000000      8.9940000      8.9760000     21.2080000
   1550    516      4      0.0000000      9.9800000      9.3960000     19.9090000
   1551    517      3      0.0000000     12.5680000      7.5040000      0.8520000
   1552    517      4      0.0000000     12.1770000      7.2210000      1.7780000
   1553    517      4      0.0000000     13.4830000      7.9860000      1.0580000
   1554    518      3      0.0000000      2.6020000      7.8440000     12.9000000
   1555    518      4      0.0000000      2.8580000      7.0700000     12.2880000
   1556    518      4      0.0000000      2.2270000      7.4420000     13.8040000
   1557    519      3      0.0000000      2.4580000     10.6260000     24.1130000
   1558    519      4      0.0000000      1.9670000     11.1270000     23.3970000
   1559    519      4      0.0000000      1.9040000     10.8790000     24.9620000
   1560    520      3      0.0000000     14.8950000     12.4040000     24.2180000
   1561    520      4      0.0000000     15.0920000     11.4240000     24.0000000
   1562    520      4      0.0000000     14.3210000     12.4150000     25.0500000
   1563    521      3      0.0000000     18.5890000     14.3050000     12.5240000
   1564    521      4      0.0000000     18.2950000     13.8220000     11.6660000
   1565    521      4      0.0000000     19.6070000     14.6250000     12.3540000
   1566    522      3      0.0000000     22.5340000      3.0570000     20.3050000
   1567    522      4      0.0000000     23.2600000      3.5490000     19.7730000
   1568    522      4      0.0000000     21.6210000      3.5380000     20.2020000
   1569    523      3      0.0000000     14.3590000      2.8980000      0.1680000
   1570    523      4      0.0000000     13.7940000      3.6370000     -0.2100000
   1571    523      4      0.0000000     13.6430000      2.2600000      0.3660000
   1572    524      3      0.0000000      5.8210000     15.1780000      5.3530000
   1573    524      4      0.0000000      5.9480000     14.2820000      4.9080000
   1574    524      4      0.0000000      5.9830000     15.1250000      6.3840000
   1575    525      3      0.0000000     22.4090000     21.4890000     19.1490000
   1576    525      4      0.0000000     21.4250000     21.5570000     18.8480000
   1577    525      4      0.0000000     22.7110000     20.6970000     18.5610000
   1578    526      3      0.0000000      3.9990000     23.3800000     20.7530000
   1579    526      4      0.0000000      3.4910000     22.6240000     20.3750000
   1580    526      4      0.0000000      4.8660000     23.0320000     21.1260000
   1581    527      3      0.0000000     16.7290000      8.4530000      4.0870000
   1582    527      4      0.0000000     17.6860000      8.7730000      3.9210000
   1583    527      4      0.0000000     16.4880000      8.4750000      5.0840000
   1584    528      3      0.0000000      1.3660000      1.8390000      6.7780000
   1585    528      4      0.0000000      2.1190000      1.8820000      7.4920000
   1586    528      4      0.0000000      1.3880000      0.9730000      6.2480000
   1587    529      3      0.0000000      1.1310000      3.8170000     16.5570000
   1588    529      4      0.0000000      0.7940000      3.9610000     17.4920000
   1589    529      4      0.0000000      0.3380000      3.5930000     15.9250000
   1590    530      3      0.0000000     12.1320000     24.2450000      7.2590000
   1591    530      4      0.0000000     12.5360000     24.2380000      6.3180000
   1592    530      4      0.0000000     12.9010000     24.6430000      7.8750000
   1593    531      3      0.0000000     16.8060000     22.4080000      2.7790000
   1594    531      4      0.0000000     17.4150000     22.6400000      3.5730000
   1595    531      4      0.0000000     15.9090000     22.1710000      3.2240000
   1596    532      3      0.0000000      3.5900000      8.3610000     17.9200000
   1597    532      4      0.0000000      3.7200000      9.0560000     18.6900000
   1598    532      4      0.0000000      2.7100000      7.8710000     18.1320000
   1599    533      3      0.0000000     12.3010000      1.1640000      0.8710000
   1600    533      4      0.0000000     12.7710000      0.2640000      1.2170000
   1601    533      4      0.0000000     11.3440000      0.9940000      0.5160000
   1602    534      3      0.0000000     24.9940000     14.2300000     24.7270000
   1603    534      4      0.0000000     24.4990000     15.1000000     24.8120000
   1604    534      4      0.0000000     24.8920000     13.8070000     25.6100000
   1605    535      3      0.0000000      7.8000000      6.9990000      1.2060000
   1606    535      4      0.0000000      8.5890000      6.4280000      1.0010000
   1607    535      4      0.0000000      6.9960000      6.4420000      1.4970000
   1608    536      3      0.0000000      4.7600000     21.2510000      8.6360000
   1609    536      4      0.0000000      5.7490000     21.4690000      8.5950000
   1610    536      4      0.0000000      4.5430000     20.5410000      9.3280000
   1611    537      3      0.0000000     20.8270000     20.0400000     24.3840000
   1612    537      4      0.0000000     19.8360000     19.9970000     24.7280000
   1613    537      4      0.0000000     21.2120000     19.0980000     24.2420000
   1614    538      3      0.0000000     23.1200000     19.1390000     20.6670000
   1615    538      4      0.0000000     22.9460000     20.1400000     20.5520000
   1616    538      4      0.0000000     24.1200000     18.9680000     20.6900000
   1617    539      3      0.0000000     22.6340000     15.1070000      1.2970000
   1618    539      4      0.0000000     22.8120000     16.1140000      1.5230000
   1619    539      4      0.0000000     21.6460000     14.9160000      1.4040000
   1620    540      3      0.0000000     12.1220000      9.4760000     14.1530000
   1621    540      4      0.0000000     11.8270000      9.0200000     13.2610000
   1622    540      4      0.0000000     11.4630000     10.1850000     14.4830000
   1623    541      3      0.0000000      0.6970000     18.0010000     23.3980000
   1624    541      4      0.0000000      0.4040000     18.9140000     23.8760000
   1625    541      4      0.0000000      1.6930000     17.9790000     23.6750000
   1626    542      3      0.0000000     18.5620000     19.5060000      0.0740000
   1627    542      4      0.0000000     18.6890000     20.4170000      0.5220000
   1628    542      4      0.0000000     18.6890000     18.8350000      0.9150000
   1629    543      3      0.0000000     13.4630000      4.7940000      5.9700000
   1630    543      4      0.0000000     14.2070000      5.4390000      6.2650000
   1631    543      4      0.0000000     13.4010000      4.8720000      4.9220000
   1632    544      3      0.0000000     15.3140000      5.7620000     10.3850000
   1633    544      4      0.0000000     16.1400000      5.4130000      9.8520000
   1634    544      4      0.0000000     14.5740000      5.8320000      9.6590000
   1635    545      3      0.0000000     22.9610000     14.9670000     14.4220000
   1636    545      4      0.0000000     23.6010000     15.6970000     14.1280000
   1637    545      4      0.0000000     23.4940000     14.1990000     14.9440000
   1638    546      3      0.0000000     21.6850000     18.7680000     16.3340000
   1639    546      4      0.0000000     20.9240000     18.5390000     15.5710000
   1640    546      4      0.0000000     21.5070000     18.2280000     17.1630000
   1641    547      3      0.0000000      6.8090000     12.3950000      1.8380000
   1642    547      4      0.0000000      6.0110000     11.7310000      1.9570000
   1643    547      4      0.0000000      7.1890000     12.2680000      0.8750000
   1644    548      3      0.0000000      5.4720000     11.0600000     16.2910000
   1645    548      4      0.0000000      4.8100000     11.6980000     16.6760000
   1646    548      4      0.0000000      6.2050000     11.2040000     16.9560000
   1647    549      3      0.0000000     21.2200000      0.1710000     18.5130000
   1648    549      4      0.0000000     21.0820000      0.6760000     19.3890000
   1649    549      4      0.0000000     22.0720000     -0.5090000     18.7100000
   1650    550      3      0.0000000     10.3580000      1.4090000     22.7440000
   1651    550      4      0.0000000     10.9620000      1.8650000     22.0190000
   1652    550      4      0.0000000     10.6470000      0.4280000     22.6610000
   1653    551      3      0.0000000     13.5590000     17.9380000     22.6750000
   1654    551      4      0.0000000     14.1440000     18.7710000     22.8670000
   1655    551      4      0.0000000     14.0570000     17.2390000     22.1150000
   1656    552      3      0.0000000      8.3040000     19.0290000      8.1130000
   1657    552      4      0.0000000      8.1460000     18.1560000      7.5890000
   1658    552      4      0.0000000      9.2140000     19.0120000      8.5220000
   1659    553      3      0.0000000      9.9850000      5.1650000      1.4740000
   1660    553      4      0.0000000     10.3090000      5.1370000      0.5580000
   1661    553      4      0.0000000      9.6370000      4.2110000      1.6720000
   1662    554      3      0.0000000     24.0500000     19.5430000      4.3960000
   1663    554      4      0.0000000     25.0300000     19.7560000      4.3180000
   1664    554      4      0.0000000     23.9300000     18.5820000      4.6540000
   1665    555      3      0.0000000     19.0920000      3.6190000     12.8560000
   1666    555      4      0.0000000     19.5300000      4.4950000     13.1050000
   1667    555      4      0.0000000     19.6770000      2.7980000     12.7680000
   1668    556      3      0.0000000     13.7870000     24.2360000     23.1760000
   1669    556      4      0.0000000     13.7720000     23.7180000     22.2480000
   1670    556      4      0.0000000     14.3730000     25.0990000     22.9850000
   1671    557      3      0.0000000     16.5720000     16.2920000     14.8860000
   1672    557      4      0.0000000     15.8950000     16.2980000     15.6460000
   1673    557      4      0.0000000     17.2630000     15.5820000     15.0480000
   1674    558      3      0.0000000      2.1310000     11.4220000      9.7170000
   1675    558      4      0.0000000      2.1190000     11.3800000      8.7010000
   1676    558      4      0.0000000      2.8810000     10.8380000     10.0840000
   1677    559      3      0.0000000      7.3850000      6.8780000     23.8650000
   1678    559      4      0.0000000      6.9850000      7.5820000     24.4650000
   1679    559      4      0.0000000      7.2820000      7.0770000     22.7950000
   1680    560      3      0.0000000     19.9700000     13.5460000      0.5970000
   1681    560      4      0.0000000     19.3840000     12.8800000      0.1230000
   1682    560      4      0.0000000     19.6490000     14.3600000      0.0540000
   1683    561      3      0.0000000     23.1420000     19.3570000     13.7610000
   1684    561      4      0.0000000     22.7830000     19.3330000     12.8260000
   1685    561      4      0.0000000     22.4890000     18.9320000     14.3820000

 Bonds

       1       6       1       2
       2       5       1       4
       3       6       1       3
       4       7       4       5
       5       2       6       8
       6       2       6       7
       7       2       9      10
       8       2       9      11
       9       2      12      14
      10       2      12      13
      11       2      15      16
      12       2      15      17
      13       2      18      19
      14       2      18      20
      15       2      21      23
      16       2      21      22
      17       2      24      25
      18       2      24      26
      19       2      27      28
      20       2      27      29
      21       2      30      32
      22       2      30      31
      23       2      33      35
      24       2      33      34
      25       2      36      37
      26       2      36      38
      27       2      39      40
      28       2      39      41
      29       2      42      44
      30       2      42      43
      31       2      45      46
      32       2      45      47
      33       2      48      49
      34       2      48      50
      35       2      51      53
      36       2      51      52
      37       2      54      55
      38       2      54      56
      39       2      57      59
      40       2      57      58
      41       2      60      61
      42       2      60      62
      43       2      63      64
      44       2      63      65
      45       2      66      67
      46       2      66      68
      47       2      69      70
      48       2      69      71
      49       2      72      74
      50       2      72      73
      51       2      75      76
      52       2      75      77
      53       2      78      79
      54       2      78      80
      55       2      81      83
      56       2      81      82
      57       2      84      85
      58       2      84      86
      59       2      87      88
      60       2      87      89
      61       2      90      91
      62       2      90      92
      63       2      93      95
      64       2      93      94
      65       2      96      97
      66       2      96      98
      67       2      99     101
      68       2      99     100
      69       2     102     103
      70       2     102     104
      71       2     105     106
      72       2     105     107
      73       2     108     109
      74       2     108     110
      75       2     111     112
      76       2     111     113
      77       2     114     116
      78       2     114     115
      79       2     117     119
      80       2     117     118
      81       2     120     121
      82       2     120     122
      83       2     123     124
      84       2     123     125
      85       2     126     127
      86       2     126     128
      87       2     129     130
      88       2     129     131
      89       2     132     133
      90       2     132     134
      91       2     135     136
      92       2     135     137
      93       2     138     140
      94       2     138     139
      95       2     141     143
      96       2     141     142
      97       2     144     146
      98       2     144     145
      99       2     147     148
     100       2     147     149
     101       2     150     152
     102       2     150     151
     103       2     153     154
     104       2     153     155
     105       2     156     158
     106       2     156     157
     107       2     159     160
     108       2     159     161
     109       2     162     163
     110       2     162     164
     111       2     165     166
     112       2     165     167
     113       2     168     170
     114       2     168     169
     115       2     171     172
     116       2     171     173
     117       2     174     175
     118       2     174     176
     119       2     177     179
     120       2     177     178
     121       2     180     181
     122       2     180     182
     123       2     183     184
     124       2     183     185
     125       2     186     187
     126       2     186     188
     127       2     189     190
     128       2     189     191
     129       2     192     193
     130       2     192     194
     131       2     195     196
     132       2     195     197
     133       2     198     199
     134       2     198     200
     135       2     201     202
     136       2     201     203
     137       2     204     205
     138       2     204     206
     139       2     207     208
     140       2     207     209
     141       2     210     211
     142       2     210     212
     143       2     213     214
     144       2     213     215
     145       2     216     217
     146       2     216     218
     147       2     219     221
     148       2     219     220
     149       2     222     223
     150       2     222     224
     151       2     225     226
     152       2     225     227
     153       2     228     230
     154       2     228     229
     155       2     231     233
     156       2     231     232
     157       2     234     235
     158       2     234     236
     159       2     237     238
     160       2     237     239
     161       2     240     242
     162       2     240     241
     163       2     243     244
     164       2     243     245
     165       2     246     247
     166       2     246     248
     167       2     249     250
     168       2     249     251
     169       2     252     253
     170       2     252     254
     171       2     255     256
     172       2     255     257
     173       2     258     260
     174       2     258     259
     175       2     261     262
     176       2     261     263
     177       2     264     265
     178       2     264     266
     179       2     267     269
     180       2     267     268
     181       2     270     271
     182       2     270     272
     183       2     273     274
     184       2     273     275
     185       2     276     278
     186       2     276     277
     187       2     279     281
     188       2     279     280
     189       2     282     283
     190       2     282     284
     191       2     285     287
     192       2     285     286
     193       2     288     289
     194       2     288     290
     195       2     291     292
     196       2     291     293
     197       2     294     295
     198       2     294     296
     199       2     297     298
     200       2     297     299
     201       2     300     301
     202       2     300     302
     203       2     303     304
     204       2     303     305
     205       2     306     307
     206       2     306     308
     207       2     309     311
     208       2     309     310
     209       2     312     313
     210       2     312     314
     211       2     315     317
     212       2     315     316
     213       2     318     320
     214       2     318     319
     215       2     321     322
     216       2     321     323
     217       2     324     326
     218       2     324     325
     219       2     327     329
     220       2     327     328
     221       2     330     331
     222       2     330     332
     223       2     333     334
     224       2     333     335
     225       2     336     338
     226       2     336     337
     227       2     339     340
     228       2     339     341
     229       2     342     344
     230       2     342     343
     231       2     345     346
     232       2     345     347
     233       2     348     349
     234       2     348     350
     235       2     351     353
     236       2     351     352
     237       2     354     355
     238       2     354     356
     239       2     357     358
     240       2     357     359
     241       2     360     361
     242       2     360     362
     243       2     363     365
     244       2     363     364
     245       2     366     368
     246       2     366     367
     247       2     369     370
     248       2     369     371
     249       2     372     373
     250       2     372     374
     251       2     375     377
     252       2     375     376
     253       2     378     379
     254       2     378     380
     255       2     381     382
     256       2     381     383
     257       2     384     386
     258       2     384     385
     259       2     387     388
     260       2     387     389
     261       2     390     391
     262       2     390     392
     263       2     393     395
     264       2     393     394
     265       2     396     397
     266       2     396     398
     267       2     399     400
     268       2     399     401
     269       2     402     403
     270       2     402     404
     271       2     405     406
     272       2     405     407
     273       2     408     409
     274       2     408     410
     275       2     411     412
     276       2     411     413
     277       2     414     416
     278       2     414     415
     279       2     417     418
     280       2     417     419
     281       2     420     421
     282       2     420     422
     283       2     423     424
     284       2     423     425
     285       2     426     427
     286       2     426     428
     287       2     429     430
     288       2     429     431
     289       2     432     433
     290       2     432     434
     291       2     435     437
     292       2     435     436
     293       2     438     439
     294       2     438     440
     295       2     441     443
     296       2     441     442
     297       2     444     445
     298       2     444     446
     299       2     447     448
     300       2     447     449
     301       2     450     451
     302       2     450     452
     303       2     453     454
     304       2     453     455
     305       2     456     457
     306       2     456     458
     307       2     459     461
     308       2     459     460
     309       2     462     464
     310       2     462     463
     311       2     465     466
     312       2     465     467
     313       2     468     470
     314       2     468     469
     315       2     471     472
     316       2     471     473
     317       2     474     475
     318       2     474     476
     319       2     477     479
     320       2     477     478
     321       2     480     482
     322       2     480     481
     323       2     483     485
     324       2     483     484
     325       2     486     487
     326       2     486     488
     327       2     489     491
     328       2     489     490
     329       2     492     493
     330       2     492     494
     331       2     495     496
     332       2     495     497
     333       2     498     500
     334       2     498     499
     335       2     501     502
     336       2     501     503
     337       2     504     505
     338       2     504     506
     339       2     507     508
     340       2     507     509
     341       2     510     511
     342       2     510     512
     343       2     513     514
     344       2     513     515
     345       2     516     517
     346       2     516     518
     347       2     519     520
     348       2     519     521
     349       2     522     523
     350       2     522     524
     351       2     525     526
     352       2     525     527
     353       2     528     529
     354       2     528     530
     355       2     531     532
     356       2     531     533
     357       2     534     535
     358       2     534     536
     359       2     537     538
     360       2     537     539
     361       2     540     541
     362       2     540     542
     363       2     543     544
     364       2     543     545
     365       2     546     547
     366       2     546     548
     367       2     549     550
     368       2     549     551
     369       2     552     553
     370       2     552     554
     371       2     555     556
     372       2     555     557
     373       2     558     559
     374       2     558     560
     375       2     561     563
     376       2     561     562
     377       2     564     565
     378       2     564     566
     379       2     567     568
     380       2     567     569
     381       2     570     571
     382       2     570     572
     383       2     573     575
     384       2     573     574
     385       2     576     577
     386       2     576     578
     387       2     579     581
     388       2     579     580
     389       2     582     583
     390       2     582     584
     391       2     585     586
     392       2     585     587
     393       2     588     589
     394       2     588     590
     395       2     591     593
     396       2     591     592
     397       2     594     595
     398       2     594     596
     399       2     597     598
     400       2     597     599
     401       2     600     602
     402       2     600     601
     403       2     603     604
     404       2     603     605
     405       2     606     608
     406       2     606     607
     407       2     609     611
     408       2     609     610
     409       2     612     613
     410       2     612     614
     411       2     615     616
     412       2     615     617
     413       2     618     619
     414       2     618     620
     415       2     621     622
     416       2     621     623
     417       2     624     626
     418       2     624     625
     419       2     627     628
     420       2     627     629
     421       2     630     631
     422       2     630     632
     423       2     633     634
     424       2     633     635
     425       2     636     638
     426       2     636     637
     427       2     639     640
     428       2     639     641
     429       2     642     643
     430       2     642     644
     431       2     645     646
     432       2     645     647
     433       2     648     649
     434       2     648     650
     435       2     651     653
     436       2     651     652
     437       2     654     655
     438       2     654     656
     439       2     657     658
     440       2     657     659
     441       2     660     661
     442       2     660     662
     443       2     663     664
     444       2     663     665
     445       2     666     667
     446       2     666     668
     447       2     669     670
     448       2     669     671
     449       2     672     674
     450       2     672     673
     451       2     675     676
     452       2     675     677
     453       2     678     679
     454       2     678     680
     455       2     681     682
     456       2     681     683
     457       2     684     685
     458       2     684     686
     459       2     687     689
     460       2     687     688
     461       2     690     691
     462       2     690     692
     463       2     693     694
     464       2     693     695
     465       2     696     698
     466       2     696     697
     467       2     699     701
     468       2     699     700
     469       2     702     703
     470       2     702     704
     471       2     705     706
     472       2     705     707
     473       2     708     710
     474       2     708     709
     475       2     711     713
     476       2     711     712
     477       2     714     715
     478       2     714     716
     479       2     717     718
     480       2     717     719
     481       2     720     721
     482       2     720     722
     483       2     723     725
     484       2     723     724
     485       2     726     727
     486       2     726     728
     487       2     729     730
     488       2     729     731
     489       2     732     733
     490       2     732     734
     491       2     735     736
     492       2     735     737
     493       2     738     739
     494       2     738     740
     495       2     741     742
     496       2     741     743
     497       2     744     746
     498       2     744     745
     499       2     747     749
     500       2     747     748
     501       2     750     752
     502       2     750     751
     503       2     753     754
     504       2     753     755
     505       2     756     758
     506       2     756     757
     507       2     759     760
     508       2     759     761
     509       2     762     764
     510       2     762     763
     511       2     765     766
     512       2     765     767
     513       2     768     769
     514       2     768     770
     515       2     771     772
     516       2     771     773
     517       2     774     775
     518       2     774     776
     519       2     777     778
     520       2     777     779
     521       2     780     781
     522       2     780     782
     523       2     783     784
     524       2     783     785
     525       2     786     787
     526       2     786     788
     527       2     789     790
     528       2     789     791
     529       2     792     793
     530       2     792     794
     531       2     795     796
     532       2     795     797
     533       2     798     800
     534       2     798     799
     535       2     801     802
     536       2     801     803
     537       2     804     805
     538       2     804     806
     539       2     807     809
     540       2     807     808
     541       2     810     811
     542       2     810     812
     543       2     813     815
     544       2     813     814
     545       2     816     818
     546       2     816     817
     547       2     819     821
     548       2     819     820
     549       2     822     823
     550       2     822     824
     551       2     825     826
     552       2     825     827
     553       2     828     830
     554       2     828     829
     555       2     831     832
     556       2     831     833
     557       2     834     835
     558       2     834     836
     559       2     837     838
     560       2     837     839
     561       2     840     841
     562       2     840     842
     563       2     843     844
     564       2     843     845
     565       2     846     847
     566       2     846     848
     567       2     849     850
     568       2     849     851
     569       2     852     853
     570       2     852     854
     571       2     855     857
     572       2     855     856
     573       2     858     859
     574       2     858     860
     575       2     861     862
     576       2     861     863
     577       2     864     865
     578       2     864     866
     579       2     867     869
     580       2     867     868
     581       2     870     871
     582       2     870     872
     583       2     873     874
     584       2     873     875
     585       2     876     877
     586       2     876     878
     587       2     879     881
     588       2     879     880
     589       2     882     884
     590       2     882     883
     591       2     885     887
     592       2     885     886
     593       2     888     890
     594       2     888     889
     595       2     891     893
     596       2     891     892
     597       2     894     895
     598       2     894     896
     599       2     897     899
     600       2     897     898
     601       2     900     901
     602       2     900     902
     603       2     903     904
     604       2     903     905
     605       2     906     907
     606       2     906     908
     607       2     909     910
     608       2     909     911
     609       2     912     913
     610       2     912     914
     611       2     915     916
     612       2     915     917
     613       2     918     920
     614       2     918     919
     615       2     921     922
     616       2     921     923
     617       2     924     926
     618       2     924     925
     619       2     927     928
     620       2     927     929
     621       2     930     932
     622       2     930     931
     623       2     933     934
     624       2     933     935
     625       2     936     938
     626       2     936     937
     627       2     939     940
     628       2     939     941
     629       2     942     943
     630       2     942     944
     631       2     945     946
     632       2     945     947
     633       2     948     949
     634       2     948     950
     635       2     951     953
     636       2     951     952
     637       2     954     956
     638       2     954     955
     639       2     957     959
     640       2     957     958
     641       2     960     961
     642       2     960     962
     643       2     963     964
     644       2     963     965
     645       2     966     967
     646       2     966     968
     647       2     969     970
     648       2     969     971
     649       2     972     973
     650       2     972     974
     651       2     975     976
     652       2     975     977
     653       2     978     979
     654       2     978     980
     655       2     981     982
     656       2     981     983
     657       2     984     985
     658       2     984     986
     659       2     987     988
     660       2     987     989
     661       2     990     991
     662       2     990     992
     663       2     993     994
     664       2     993     995
     665       2     996     998
     666       2     996     997
     667       2     999    1000
     668       2     999    1001
     669       2    1002    1003
     670       2    1002    1004
     671       2    1005    1007
     672       2    1005    1006
     673       2    1008    1009
     674       2    1008    1010
     675       2    1011    1012
     676       2    1011    1013
     677       2    1014    1015
     678       2    1014    1016
     679       2    1017    1018
     680       2    1017    1019
     681       2    1020    1022
     682       2    1020    1021
     683       2    1023    1024
     684       2    1023    1025
     685       2    1026    1028
     686       2    1026    1027
     687       2    1029    1030
     688       2    1029    1031
     689       2    1032    1033
     690       2    1032    1034
     691       2    1035    1036
     692       2    1035    1037
     693       2    1038    1040
     694       2    1038    1039
     695       2    1041    1042
     696       2    1041    1043
     697       2    1044    1045
     698       2    1044    1046
     699       2    1047    1048
     700       2    1047    1049
     701       2    1050    1052
     702       2    1050    1051
     703       2    1053    1054
     704       2    1053    1055
     705       2    1056    1058
     706       2    1056    1057
     707       2    1059    1061
     708       2    1059    1060
     709       2    1062    1064
     710       2    1062    1063
     711       2    1065    1067
     712       2    1065    1066
     713       2    1068    1069
     714       2    1068    1070
     715       2    1071    1072
     716       2    1071    1073
     717       2    1074    1075
     718       2    1074    1076
     719       2    1077    1078
     720       2    1077    1079
     721       2    1080    1081
     722       2    1080    1082
     723       2    1083    1084
     724       2    1083    1085
     725       2    1086    1088
     726       2    1086    1087
     727       2    1089    1090
     728       2    1089    1091
     729       2    1092    1093
     730       2    1092    1094
     731       2    1095    1097
     732       2    1095    1096
     733       2    1098    1099
     734       2    1098    1100
     735       2    1101    1103
     736       2    1101    1102
     737       2    1104    1105
     738       2    1104    1106
     739       2    1107    1108
     740       2    1107    1109
     741       2    1110    1111
     742       2    1110    1112
     743       2    1113    1115
     744       2    1113    1114
     745       2    1116    1117
     746       2    1116    1118
     747       2    1119    1120
     748       2    1119    1121
     749       2    1122    1124
     750       2    1122    1123
     751       2    1125    1126
     752       2    1125    1127
     753       2    1128    1129
     754       2    1128    1130
     755       2    1131    1132
     756       2    1131    1133
     757       2    1134    1135
     758       2    1134    1136
     759       2    1137    1139
     760       2    1137    1138
     761       2    1140    1141
     762       2    1140    1142
     763       2    1143    1144
     764       2    1143    1145
     765       2    1146    1147
     766       2    1146    1148
     767       2    1149    1150
     768       2    1149    1151
     769       2    1152    1153
     770       2    1152    1154
     771       2    1155    1157
     772       2    1155    1156
     773       2    1158    1159
     774       2    1158    1160
     775       2    1161    1162
     776       2    1161    1163
     777       2    1164    1166
     778       2    1164    1165
     779       2    1167    1169
     780       2    1167    1168
     781       2    1170    1171
     782       2    1170    1172
     783       2    1173    1174
     784       2    1173    1175
     785       2    1176    1177
     786       2    1176    1178
     787       2    1179    1180
     788       2    1179    1181
     789       2    1182    1183
     790       2    1182    1184
     791       2    1185    1187
     792       2    1185    1186
     793       2    1188    1189
     794       2    1188    1190
     795       2    1191    1193
     796       2    1191    1192
     797       2    1194    1196
     798       2    1194    1195
     799       2    1197    1198
     800       2    1197    1199
     801       2    1200    1201
     802       2    1200    1202
     803       2    1203    1204
     804       2    1203    1205
     805       2    1206    1207
     806       2    1206    1208
     807       2    1209    1210
     808       2    1209    1211
     809       2    1212    1213
     810       2    1212    1214
     811       2    1215    1216
     812       2    1215    1217
     813       2    1218    1219
     814       2    1218    1220
     815       2    1221    1222
     816       2    1221    1223
     817       2    1224    1225
     818       2    1224    1226
     819       2    1227    1228
     820       2    1227    1229
     821       2    1230    1231
     822       2    1230    1232
     823       2    1233    1234
     824       2    1233    1235
     825       2    1236    1238
     826       2    1236    1237
     827       2    1239    1240
     828       2    1239    1241
     829       2    1242    1243
     830       2    1242    1244
     831       2    1245    1246
     832       2    1245    1247
     833       2    1248    1249
     834       2    1248    1250
     835       2    1251    1252
     836       2    1251    1253
     837       2    1254    1256
     838       2    1254    1255
     839       2    1257    1259
     840       2    1257    1258
     841       2    1260    1261
     842       2    1260    1262
     843       2    1263    1264
     844       2    1263    1265
     845       2    1266    1268
     846       2    1266    1267
     847       2    1269    1270
     848       2    1269    1271
     849       2    1272    1273
     850       2    1272    1274
     851       2    1275    1276
     852       2    1275    1277
     853       2    1278    1279
     854       2    1278    1280
     855       2    1281    1282
     856       2    1281    1283
     857       2    1284    1286
     858       2    1284    1285
     859       2    1287    1288
     860       2    1287    1289
     861       2    1290    1291
     862       2    1290    1292
     863       2    1293    1295
     864       2    1293    1294
     865       2    1296    1297
     866       2    1296    1298
     867       2    1299    1300
     868       2    1299    1301
     869       2    1302    1303
     870       2    1302    1304
     871       2    1305    1306
     872       2    1305    1307
     873       2    1308    1309
     874       2    1308    1310
     875       2    1311    1312
     876       2    1311    1313
     877       2    1314    1315
     878       2    1314    1316
     879       2    1317    1319
     880       2    1317    1318
     881       2    1320    1321
     882       2    1320    1322
     883       2    1323    1325
     884       2    1323    1324
     885       2    1326    1327
     886       2    1326    1328
     887       2    1329    1330
     888       2    1329    1331
     889       2    1332    1333
     890       2    1332    1334
     891       2    1335    1336
     892       2    1335    1337
     893       2    1338    1339
     894       2    1338    1340
     895       2    1341    1343
     896       2    1341    1342
     897       2    1344    1345
     898       2    1344    1346
     899       2    1347    1348
     900       2    1347    1349
     901       2    1350    1352
     902       2    1350    1351
     903       2    1353    1354
     904       2    1353    1355
     905       2    1356    1358
     906       2    1356    1357
     907       2    1359    1360
     908       2    1359    1361
     909       2    1362    1363
     910       2    1362    1364
     911       2    1365    1367
     912       2    1365    1366
     913       2    1368    1369
     914       2    1368    1370
     915       2    1371    1372
     916       2    1371    1373
     917       2    1374    1376
     918       2    1374    1375
     919       2    1377    1379
     920       2    1377    1378
     921       2    1380    1381
     922       2    1380    1382
     923       2    1383    1384
     924       2    1383    1385
     925       2    1386    1387
     926       2    1386    1388
     927       2    1389    1390
     928       2    1389    1391
     929       2    1392    1393
     930       2    1392    1394
     931       2    1395    1396
     932       2    1395    1397
     933       2    1398    1399
     934       2    1398    1400
     935       2    1401    1402
     936       2    1401    1403
     937       2    1404    1405
     938       2    1404    1406
     939       2    1407    1408
     940       2    1407    1409
     941       2    1410    1411
     942       2    1410    1412
     943       2    1413    1415
     944       2    1413    1414
     945       2    1416    1417
     946       2    1416    1418
     947       2    1419    1420
     948       2    1419    1421
     949       2    1422    1423
     950       2    1422    1424
     951       2    1425    1427
     952       2    1425    1426
     953       2    1428    1429
     954       2    1428    1430
     955       2    1431    1432
     956       2    1431    1433
     957       2    1434    1435
     958       2    1434    1436
     959       2    1437    1438
     960       2    1437    1439
     961       2    1440    1442
     962       2    1440    1441
     963       2    1443    1444
     964       2    1443    1445
     965       2    1446    1447
     966       2    1446    1448
     967       2    1449    1450
     968       2    1449    1451
     969       2    1452    1454
     970       2    1452    1453
     971       2    1455    1456
     972       2    1455    1457
     973       2    1458    1459
     974       2    1458    1460
     975       2    1461    1463
     976       2    1461    1462
     977       2    1464    1466
     978       2    1464    1465
     979       2    1467    1468
     980       2    1467    1469
     981       2    1470    1471
     982       2    1470    1472
     983       2    1473    1474
     984       2    1473    1475
     985       2    1476    1478
     986       2    1476    1477
     987       2    1479    1481
     988       2    1479    1480
     989       2    1482    1483
     990       2    1482    1484
     991       2    1485    1486
     992       2    1485    1487
     993       2    1488    1489
     994       2    1488    1490
     995       2    1491    1492
     996       2    1491    1493
     997       2    1494    1495
     998       2    1494    1496
     999       2    1497    1498
    1000       2    1497    1499
    1001       2    1500    1502
    1002       2    1500    1501
    1003       2    1503    1504
    1004       2    1503    1505
    1005       2    1506    1507
    1006       2    1506    1508
    1007       2    1509    1511
    1008       2    1509    1510
    1009       2    1512    1513
    1010       2    1512    1514
    1011       2    1515    1516
    1012       2    1515    1517
    1013       2    1518    1520
    1014       2    1518    1519
    1015       2    1521    1522
    1016       2    1521    1523
    1017       2    1524    1525
    1018       2    1524    1526
    1019       2    1527    1528
    1020       2    1527    1529
    1021       2    1530    1532
    1022       2    1530    1531
    1023       2    1533    1535
    1024       2    1533    1534
    1025       2    1536    1537
    1026       2    1536    1538
    1027       2    1539    1540
    1028       2    1539    1541
    1029       2    1542    1543
    1030       2    1542    1544
    1031       2    1545    1546
    1032       2    1545    1547
    1033       2    1548    1550
    1034       2    1548    1549
    1035       2    1551    1552
    1036       2    1551    1553
    1037       2    1554    1556
    1038       2    1554    1555
    1039       2    1557    1558
    1040       2    1557    1559
    1041       2    1560    1561
    1042       2    1560    1562
    1043       2    1563    1564
    1044       2    1563    1565
    1045       2    1566    1567
    1046       2    1566    1568
    1047       2    1569    1571
    1048       2    1569    1570
    1049       2    1572    1573
    1050       2    1572    1574
    1051       2    1575    1577
    1052       2    1575    1576
    1053       2    1578    1579
    1054       2    1578    1580
    1055       2    1581    1582
    1056       2    1581    1583
    1057       2    1584    1585
    1058       2    1584    1586
    1059       2    1587    1588
    1060       2    1587    1589
    1061       2    1590    1592
    1062       2    1590    1591
    1063       2    1593    1594
    1064       2    1593    1595
    1065       2    1596    1597
    1066       2    1596    1598
    1067       2    1599    1600
    1068       2    1599    1601
    1069       2    1602    1603
    1070       2    1602    1604
    1071       2    1605    1606
    1072       2    1605    1607
    1073       2    1608    1609
    1074       2    1608    1610
    1075       2    1611    1612
    1076       2    1611    1613
    1077       2    1614    1616
    1078       2    1614    1615
    1079       2    1617    1618
    1080       2    1617    1619
    1081       2    1620    1621
    1082       2    1620    1622
    1083       2    1623    1624
    1084       2    1623    1625
    1085       2    1626    1627
    1086       2    1626    1628
    1087       2    1629    1630
    1088       2    1629    1631
    1089       2    1632    1634
    1090       2    1632    1633
    1091       2    1635    1636
    1092       2    1635    1637
    1093       2    1638    1640
    1094       2    1638    1639
    1095       2    1641    1643
    1096       2    1641    1642
    1097       2    1644    1645
    1098       2    1644    1646
    1099       2    1647    1648
    1100       2    1647    1649
    1101       2    1650    1652
    1102       2    1650    1651
    1103       2    1653    1654
    1104       2    1653    1655
    1105       2    1656    1657
    1106       2    1656    1658
    1107       2    1659    1660
    1108       2    1659    1661
    1109       2    1662    1663
    1110       2    1662    1664
    1111       2    1665    1667
    1112       2    1665    1666
    1113       2    1668    1670
    1114       2    1668    1669
    1115       2    1671    1672
    1116       2    1671    1673
    1117       2    1674    1676
    1118       2    1674    1675
    1119       2    1677    1678
    1120       2    1677    1679
    1121       2    1680    1681
    1122       2    1680    1682
    1123       2    1683    1684
    1124       2    1683    1685

 Angles

       1       4       2       1       4
       2       5       2       1       3
       3       4       4       1       3
       4       6       1       4       5
       5       1       8       6       7
       6       1      10       9      11
       7       1      14      12      13
       8       1      16      15      17
       9       1      19      18      20
      10       1      23      21      22
      11       1      25      24      26
      12       1      28      27      29
      13       1      32      30      31
      14       1      35      33      34
      15       1      37      36      38
      16       1      40      39      41
      17       1      44      42      43
      18       1      46      45      47
      19       1      49      48      50
      20       1      53      51      52
      21       1      55      54      56
      22       1      59      57      58
      23       1      61      60      62
      24       1      64      63      65
      25       1      67      66      68
      26       1      70      69      71
      27       1      74      72      73
      28       1      76      75      77
      29       1      79      78      80
      30       1      83      81      82
      31       1      85      84      86
      32       1      88      87      89
      33       1      91      90      92
      34       1      95      93      94
      35       1      97      96      98
      36       1     101      99     100
      37       1     103     102     104
      38       1     106     105     107
      39       1     109     108     110
      40       1     112     111     113
      41       1     116     114     115
      42       1     119     117     118
      43       1     121     120     122
      44       1     124     123     125
      45       1     127     126     128
      46       1     130     129     131
      47       1     133     132     134
      48       1     136     135     137
      49       1     140     138     139
      50       1     143     141     142
      51       1     146     144     145
      52       1     148     147     149
      53       1     152     150     151
      54       1     154     153     155
      55       1     158     156     157
      56       1     160     159     161
      57       1     163     162     164
      58       1     166     165     167
      59       1     170     168     169
      60       1     172     171     173
      61       1     175     174     176
      62       1     179     177     178
      63       1     181     180     182
      64       1     184     183     185
      65       1     187     186     188
      66       1     190     189     191
      67       1     193     192     194
      68       1     196     195     197
      69       1     199     198     200
      70       1     202     201     203
      71       1     205     204     206
      72       1     208     207     209
      73       1     211     210     212
      74       1     214     213     215
      75       1     217     216     218
      76       1     221     219     220
      77       1     223     222     224
      78       1     226     225     227
      79       1     230     228     229
      80       1     233     231     232
      81       1     235     234     236
      82       1     238     237     239
      83       1     242     240     241
      84       1     244     243     245
      85       1     247     246     248
      86       1     250     249     251
      87       1     253     252     254
      88       1     256     255     257
      89       1     260     258     259
      90       1     262     261     263
      91       1     265     264     266
      92       1     269     267     268
      93       1     271     270     272
      94       1     274     273     275
      95       1     278     276     277
      96       1     281     279     280
      97       1     283     282     284
      98       1     287     285     286
      99       1     289     288     290
     100       1     292     291     293
     101       1     295     294     296
     102       1     298     297     299
     103       1     301     300     302
     104       1     304     303     305
     105       1     307     306     308
     106       1     311     309     310
     107       1     313     312     314
     108       1     317     315     316
     109       1     320     318     319
     110       1     322     321     323
     111       1     326     324     325
     112       1     329     327     328
     113       1     331     330     332
     114       1     334     333     335
     115       1     338     336     337
     116       1     340     339     341
     117       1     344     342     343
     118       1     346     345     347
     119       1     349     348     350
     120       1     353     351     352
     121       1     355     354     356
     122       1     358     357     359
     123       1     361     360     362
     124       1     365     363     364
     125       1     368     366     367
     126       1     370     369     371
     127       1     373     372     374
     128       1     377     375     376
     129       1     379     378     380
     130       1     382     381     383
     131       1     386     384     385
     132       1     388     387     389
     133       1     391     390     392
     134       1     395     393     394
     135       1     397     396     398
     136       1     400     399     401
     137       1     403     402     404
     138       1     406     405     407
     139       1     409     408     410
     140       1     412     411     413
     141       1     416     414     415
     142       1     418     417     419
     143       1     421     420     422
     144       1     424     423     425
     145       1     427     426     428
     146       1     430     429     431
     147       1     433     432     434
     148       1     437     435     436
     149       1     439     438     440
     150       1     443     441     442
     151       1     445     444     446
     152       1     448     447     449
     153       1     451     450     452
     154       1     454     453     455
     155       1     457     456     458
     156       1     461     459     460
     157       1     464     462     463
     158       1     466     465     467
     159       1     470     468     469
     160       1     472     471     473
     161       1     475     474     476
     162       1     479     477     478
     163       1     482     480     481
     164       1     485     483     484
     165       1     487     486     488
     166       1     491     489     490
     167       1     493     492     494
     168       1     496     495     497
     169       1     500     498     499
     170       1     502     501     503
     171       1     505     504     506
     172       1     508     507     509
     173       1     511     510     512
     174       1     514     513     515
     175       1     517     516     518
     176       1     520     519     521
     177       1     523     522     524
     178       1     526     525     527
     179       1     529     528     530
     180       1     532     531     533
     181       1     535     534     536
     182       1     538     537     539
     183       1     541     540     542
     184       1     544     543     545
     185       1     547     546     548
     186       1     550     549     551
     187       1     553     552     554
     188       1     556     555     557
     189       1     559     558     560
     190       1     563     561     562
     191       1     565     564     566
     192       1     568     567     569
     193       1     571     570     572
     194       1     575     573     574
     195       1     577     576     578
     196       1     581     579     580
     197       1     583     582     584
     198       1     586     585     587
     199       1     589     588     590
     200       1     593     591     592
     201       1     595     594     596
     202       1     598     597     599
     203       1     602     600     601
     204       1     604     603     605
     205       1     608     606     607
     206       1     611     609     610
     207       1     613     612     614
     208       1     616     615     617
     209       1     619     618     620
     210       1     622     621     623
     211       1     626     624     625
     212       1     628     627     629
     213       1     631     630     632
     214       1     634     633     635
     215       1     638     636     637
     216       1     640     639     641
     217       1     643     642     644
     218       1     646     645     647
     219       1     649     648     650
     220       1     653     651     652
     221       1     655     654     656
     222       1     658     657     659
     223       1     661     660     662
     224       1     664     663     665
     225       1     667     666     668
     226       1     670     669     671
     227       1     674     672     673
     228       1     676     675     677
     229       1     679     678     680
     230       1     682     681     683
     231       1     685     684     686
     232       1     689     687     688
     233       1     691     690     692
     234       1     694     693     695
     235       1     698     696     697
     236       1     701     699     700
     237       1     703     702     704
     238       1     706     705     707
     239       1     710     708     709
     240       1     713     711     712
     241       1     715     714     716
     242       1     718     717     719
     243       1     721     720     722
     244       1     725     723     724
     245       1     727     726     728
     246       1     730     729     731
     247       1     733     732     734
     248       1     736     735     737
     249       1     739     738     740
     250       1     742     741     743
     251       1     746     744     745
     252       1     749     747     748
     253       1     752     750     751
     254       1     754     753     755
     255       1     758     756     757
     256       1     760     759     761
     257       1     764     762     763
     258       1     766     765     767
     259       1     769     768     770
     260       1     772     771     773
     261       1     775     774     776
     262       1     778     777     779
     263       1     781     780     782
     264       1     784     783     785
     265       1     787     786     788
     266       1     790     789     791
     267       1     793     792     794
     268       1     796     795     797
     269       1     800     798     799
     270       1     802     801     803
     271       1     805     804     806
     272       1     809     807     808
     273       1     811     810     812
     274       1     815     813     814
     275       1     818     816     817
     276       1     821     819     820
     277       1     823     822     824
     278       1     826     825     827
     279       1     830     828     829
     280       1     832     831     833
     281       1     835     834     836
     282       1     838     837     839
     283       1     841     840     842
     284       1     844     843     845
     285       1     847     846     848
     286       1     850     849     851
     287       1     853     852     854
     288       1     857     855     856
     289       1     859     858     860
     290       1     862     861     863
     291       1     865     864     866
     292       1     869     867     868
     293       1     871     870     872
     294       1     874     873     875
     295       1     877     876     878
     296       1     881     879     880
     297       1     884     882     883
     298       1     887     885     886
     299       1     890     888     889
     300       1     893     891     892
     301       1     895     894     896
     302       1     899     897     898
     303       1     901     900     902
     304       1     904     903     905
     305       1     907     906     908
     306       1     910     909     911
     307       1     913     912     914
     308       1     916     915     917
     309       1     920     918     919
     310       1     922     921     923
     311       1     926     924     925
     312       1     928     927     929
     313       1     932     930     931
     314       1     934     933     935
     315       1     938     936     937
     316       1     940     939     941
     317       1     943     942     944
     318       1     946     945     947
     319       1     949     948     950
     320       1     953     951     952
     321       1     956     954     955
     322       1     959     957     958
     323       1     961     960     962
     324       1     964     963     965
     325       1     967     966     968
     326       1     970     969     971
     327       1     973     972     974
     328       1     976     975     977
     329       1     979     978     980
     330       1     982     981     983
     331       1     985     984     986
     332       1     988     987     989
     333       1     991     990     992
     334       1     994     993     995
     335       1     998     996     997
     336       1    1000     999    1001
     337       1    1003    1002    1004
     338       1    1007    1005    1006
     339       1    1009    1008    1010
     340       1    1012    1011    1013
     341       1    1015    1014    1016
     342       1    1018    1017    1019
     343       1    1022    1020    1021
     344       1    1024    1023    1025
     345       1    1028    1026    1027
     346       1    1030    1029    1031
     347       1    1033    1032    1034
     348       1    1036    1035    1037
     349       1    1040    1038    1039
     350       1    1042    1041    1043
     351       1    1045    1044    1046
     352       1    1048    1047    1049
     353       1    1052    1050    1051
     354       1    1054    1053    1055
     355       1    1058    1056    1057
     356       1    1061    1059    1060
     357       1    1064    1062    1063
     358       1    1067    1065    1066
     359       1    1069    1068    1070
     360       1    1072    1071    1073
     361       1    1075    1074    1076
     362       1    1078    1077    1079
     363       1    1081    1080    1082
     364       1    1084    1083    1085
     365       1    1088    1086    1087
     366       1    1090    1089    1091
     367       1    1093    1092    1094
     368       1    1097    1095    1096
     369       1    1099    1098    1100
     370       1    1103    1101    1102
     371       1    1105    1104    1106
     372       1    1108    1107    1109
     373       1    1111    1110    1112
     374       1    1115    1113    1114
     375       1    1117    1116    1118
     376       1    1120    1119    1121
     377       1    1124    1122    1123
     378       1    1126    1125    1127
     379       1    1129    1128    1130
     380       1    1132    1131    1133
     381       1    1135    1134    1136
     382       1    1139    1137    1138
     383       1    1141    1140    1142
     384       1    1144    1143    1145
     385       1    1147    1146    1148
     386       1    1150    1149    1151
     387       1    1153    1152    1154
     388       1    1157    1155    1156
     389       1    1159    1158    1160
     390       1    1162    1161    1163
     391       1    1166    1164    1165
     392       1    1169    1167    1168
     393       1    1171    1170    1172
     394       1    1174    1173    1175
     395       1    1177    1176    1178
     396       1    1180    1179    1181
     397       1    1183    1182    1184
     398       1    1187    1185    1186
     399       1    1189    1188    1190
     400       1    1193    1191    1192
     401       1    1196    1194    1195
     402       1    1198    1197    1199
     403       1    1201    1200    1202
     404       1    1204    1203    1205
     405       1    1207    1206    1208
     406       1    1210    1209    1211
     407       1    1213    1212    1214
     408       1    1216    1215    1217
     409       1    1219    1218    1220
     410       1    1222    1221    1223
     411       1    1225    1224    1226
     412       1    1228    1227    1229
     413       1    1231    1230    1232
     414       1    1234    1233    1235
     415       1    1238    1236    1237
     416       1    1240    1239    1241
     417       1    1243    1242    1244
     418       1    1246    1245    1247
     419       1    1249    1248    1250
     420       1    1252    1251    1253
     421       1    1256    1254    1255
     422       1    1259    1257    1258
     423       1    1261    1260    1262
     424       1    1264    1263    1265
     425       1    1268    1266    1267
     426       1    1270    1269    1271
     427       1    1273    1272    1274
     428       1    1276    1275    1277
     429       1    1279    1278    1280
     430       1    1282    1281    1283
     431       1    1286    1284    1285
     432       1    1288    1287    1289
     433       1    1291    1290    1292
     434       1    1295    1293    1294
     435       1    1297    1296    1298
     436       1    1300    1299    1301
     437       1    1303    1302    1304
     438       1    1306    1305    1307
     439       1    1309    1308    1310
     440       1    1312    1311    1313
     441       1    1315    1314    1316
     442       1    1319    1317    1318
     443       1    1321    1320    1322
     444       1    1325    1323    1324
     445       1    1327    1326    1328
     446       1    1330    1329    1331
     447       1    1333    1332    1334
     448       1    1336    1335    1337
     449       1    1339    1338    1340
     450       1    1343    1341    1342
     451       1    1345    1344    1346
     452       1    1348    1347    1349
     453       1    1352    1350    1351
     454       1    1354    1353    1355
     455       1    1358    1356    1357
     456       1    1360    1359    1361
     457       1    1363    1362    1364
     458       1    1367    1365    1366
     459       1    1369    1368    1370
     460       1    1372    1371    1373
     461       1    1376    1374    1375
     462       1    1379    1377    1378
     463       1    1381    1380    1382
     464       1    1384    1383    1385
     465       1    1387    1386    1388
     466       1    1390    1389    1391
     467       1    1393    1392    1394
     468       1    1396    1395    1397
     469       1    1399    1398    1400
     470       1    1402    1401    1403
     471       1    1405    1404    1406
     472       1    1408    1407    1409
     473       1    1411    1410    1412
     474       1    1415    1413    1414
     475       1    1417    1416    1418
     476       1    1420    1419    1421
     477       1    1423    1422    1424
     478       1    1427    1425    1426
     479       1    1429    1428    1430
     480       1    1432    1431    1433
     481       1    1435    1434    1436
     482       1    1438    1437    1439
     483       1    1442    1440    1441
     484       1    1444    1443    1445
     485       1    1447    1446    1448
     486       1    1450    1449    1451
     487       1    1454    1452    1453
     488       1    1456    1455    1457
     489       1    1459    1458    1460
     490       1    1463    1461    1462
     491       1    1466    1464    1465
     492       1    1468    1467    1469
     493       1    1471    1470    1472
     494       1    1474    1473    1475
     495       1    1478    1476    1477
     496       1    1481    1479    1480
     497       1    1483    1482    1484
     498       1    1486    1485    1487
     499       1    1489    1488    1490
     500       1    1492    1491    1493
     501       1    1495    1494    1496
     502       1    1498    1497    1499
     503       1    1502    1500    1501
     504       1    1504    1503    1505
     505       1    1507    1506    1508
     506       1    1511    1509    1510
     507       1    1513    1512    1514
     508       1    1516    1515    1517
     509       1    1520    1518    1519
     510       1    1522    1521    1523
     511       1    1525    1524    1526
     512       1    1528    1527    1529
     513       1    1532    1530    1531
     514       1    1535    1533    1534
     515       1    1537    1536    1538
     516       1    1540    1539    1541
     517       1    1543    1542    1544
     518       1    1546    1545    1547
     519       1    1550    1548    1549
     520       1    1552    1551    1553
     521       1    1556    1554    1555
     522       1    1558    1557    1559
     523       1    1561    1560    1562
     524       1    1564    1563    1565
     525       1    1567    1566    1568
     526       1    1571    1569    1570
     527       1    1573    1572    1574
     528       1    1577    1575    1576
     529       1    1579    1578    1580
     530       1    1582    1581    1583
     531       1    1585    1584    1586
     532       1    1588    1587    1589
     533       1    1592    1590    1591
     534       1    1594    1593    1595
     535       1    1597    1596    1598
     536       1    1600    1599    1601
     537       1    1603    1602    1604
     538       1    1606    1605    1607
     539       1    1609    1608    1610
     540       1    1612    1611    1613
     541       1    1616    1614    1615
     542       1    1618    1617    1619
     543       1    1621    1620    1622
     544       1    1624    1623    1625
     545       1    1627    1626    1628
     546       1    1630    1629    1631
     547       1    1634    1632    1633
     548       1    1636    1635    1637
     549       1    1640    1638    1639
     550       1    1643    1641    1642
     551       1    1645    1644    1646
     552       1    1648    1647    1649
     553       1    1652    1650    1651
     554       1    1654    1653    1655
     555       1    1657    1656    1658
     556       1    1660    1659    1661
     557       1    1663    1662    1664
     558       1    1667    1665    1666
     559       1    1670    1668    1669
     560       1    1672    1671    1673
     561       1    1676    1674    1675
     562       1    1678    1677    1679
     563       1    1681    1680    1682
     564       1    1684    1683    1685

 Dihedrals

       1       1       2       1       4       5
       2       1       3       1       4       5

 Impropers

       1       2       1       2       4       3
